%%MatrixMarket matrix coordinate integer general
%
144 288 864
1 3 0
2 4 0
3 5 0
4 6 0
5 7 0
6 8 0
7 9 0
8 10 0
9 11 0
10 12 0
11 1 0
12 2 0
13 15 0
14 16 0
15 17 0
16 18 0
17 19 0
18 20 0
19 21 0
20 22 0
21 23 0
22 24 0
23 13 0
24 14 0
25 27 0
26 28 0
27 29 0
28 30 0
29 31 0
30 32 0
31 33 0
32 34 0
33 35 0
34 36 0
35 25 0
36 26 0
37 39 0
38 40 0
39 41 0
40 42 0
41 43 0
42 44 0
43 45 0
44 46 0
45 47 0
46 48 0
47 37 0
48 38 0
49 51 0
50 52 0
51 53 0
52 54 0
53 55 0
54 56 0
55 57 0
56 58 0
57 59 0
58 60 0
59 49 0
60 50 0
61 63 0
62 64 0
63 65 0
64 66 0
65 67 0
66 68 0
67 69 0
68 70 0
69 71 0
70 72 0
71 61 0
72 62 0
73 75 0
74 76 0
75 77 0
76 78 0
77 79 0
78 80 0
79 81 0
80 82 0
81 83 0
82 84 0
83 73 0
84 74 0
85 87 0
86 88 0
87 89 0
88 90 0
89 91 0
90 92 0
91 93 0
92 94 0
93 95 0
94 96 0
95 85 0
96 86 0
97 99 0
98 100 0
99 101 0
100 102 0
101 103 0
102 104 0
103 105 0
104 106 0
105 107 0
106 108 0
107 97 0
108 98 0
109 111 0
110 112 0
111 113 0
112 114 0
113 115 0
114 116 0
115 117 0
116 118 0
117 119 0
118 120 0
119 109 0
120 110 0
121 123 0
122 124 0
123 125 0
124 126 0
125 127 0
126 128 0
127 129 0
128 130 0
129 131 0
130 132 0
131 121 0
132 122 0
133 135 0
134 136 0
135 137 0
136 138 0
137 139 0
138 140 0
139 141 0
140 142 0
141 143 0
142 144 0
143 133 0
144 134 0
1 157 1
2 158 1
3 159 1
4 160 1
5 161 1
6 162 1
7 163 1
8 164 1
9 165 1
10 166 1
11 167 1
12 168 1
13 169 1
14 170 1
15 171 1
16 172 1
17 173 1
18 174 1
19 175 1
20 176 1
21 177 1
22 178 1
23 179 1
24 180 1
25 181 1
26 182 1
27 183 1
28 184 1
29 185 1
30 186 1
31 187 1
32 188 1
33 189 1
34 190 1
35 191 1
36 192 1
37 193 1
38 194 1
39 195 1
40 196 1
41 197 1
42 198 1
43 199 1
44 200 1
45 201 1
46 202 1
47 203 1
48 204 1
49 205 1
50 206 1
51 207 1
52 208 1
53 209 1
54 210 1
55 211 1
56 212 1
57 213 1
58 214 1
59 215 1
60 216 1
61 217 1
62 218 1
63 219 1
64 220 1
65 221 1
66 222 1
67 223 1
68 224 1
69 225 1
70 226 1
71 227 1
72 228 1
73 229 1
74 230 1
75 231 1
76 232 1
77 233 1
78 234 1
79 235 1
80 236 1
81 237 1
82 238 1
83 239 1
84 240 1
85 241 1
86 242 1
87 243 1
88 244 1
89 245 1
90 246 1
91 247 1
92 248 1
93 249 1
94 250 1
95 251 1
96 252 1
97 253 1
98 254 1
99 255 1
100 256 1
101 257 1
102 258 1
103 259 1
104 260 1
105 261 1
106 262 1
107 263 1
108 264 1
109 265 1
110 266 1
111 267 1
112 268 1
113 269 1
114 270 1
115 271 1
116 272 1
117 273 1
118 274 1
119 275 1
120 276 1
121 277 1
122 278 1
123 279 1
124 280 1
125 281 1
126 282 1
127 283 1
128 284 1
129 285 1
130 286 1
131 287 1
132 288 1
133 145 1
134 146 1
135 147 1
136 148 1
137 149 1
138 150 1
139 151 1
140 152 1
141 153 1
142 154 1
143 155 1
144 156 1
1 169 2
2 170 2
3 171 2
4 172 2
5 173 2
6 174 2
7 175 2
8 176 2
9 177 2
10 178 2
11 179 2
12 180 2
13 181 2
14 182 2
15 183 2
16 184 2
17 185 2
18 186 2
19 187 2
20 188 2
21 189 2
22 190 2
23 191 2
24 192 2
25 193 2
26 194 2
27 195 2
28 196 2
29 197 2
30 198 2
31 199 2
32 200 2
33 201 2
34 202 2
35 203 2
36 204 2
37 205 2
38 206 2
39 207 2
40 208 2
41 209 2
42 210 2
43 211 2
44 212 2
45 213 2
46 214 2
47 215 2
48 216 2
49 217 2
50 218 2
51 219 2
52 220 2
53 221 2
54 222 2
55 223 2
56 224 2
57 225 2
58 226 2
59 227 2
60 228 2
61 229 2
62 230 2
63 231 2
64 232 2
65 233 2
66 234 2
67 235 2
68 236 2
69 237 2
70 238 2
71 239 2
72 240 2
73 241 2
74 242 2
75 243 2
76 244 2
77 245 2
78 246 2
79 247 2
80 248 2
81 249 2
82 250 2
83 251 2
84 252 2
85 253 2
86 254 2
87 255 2
88 256 2
89 257 2
90 258 2
91 259 2
92 260 2
93 261 2
94 262 2
95 263 2
96 264 2
97 265 2
98 266 2
99 267 2
100 268 2
101 269 2
102 270 2
103 271 2
104 272 2
105 273 2
106 274 2
107 275 2
108 276 2
109 277 2
110 278 2
111 279 2
112 280 2
113 281 2
114 282 2
115 283 2
116 284 2
117 285 2
118 286 2
119 287 2
120 288 2
121 145 2
122 146 2
123 147 2
124 148 2
125 149 2
126 150 2
127 151 2
128 152 2
129 153 2
130 154 2
131 155 2
132 156 2
133 157 2
134 158 2
135 159 2
136 160 2
137 161 2
138 162 2
139 163 2
140 164 2
141 165 2
142 166 2
143 167 2
144 168 2
1 148 3
2 149 3
3 150 3
4 151 3
5 152 3
6 153 3
7 154 3
8 155 3
9 156 3
10 145 3
11 146 3
12 147 3
13 160 3
14 161 3
15 162 3
16 163 3
17 164 3
18 165 3
19 166 3
20 167 3
21 168 3
22 157 3
23 158 3
24 159 3
25 172 3
26 173 3
27 174 3
28 175 3
29 176 3
30 177 3
31 178 3
32 179 3
33 180 3
34 169 3
35 170 3
36 171 3
37 184 3
38 185 3
39 186 3
40 187 3
41 188 3
42 189 3
43 190 3
44 191 3
45 192 3
46 181 3
47 182 3
48 183 3
49 196 3
50 197 3
51 198 3
52 199 3
53 200 3
54 201 3
55 202 3
56 203 3
57 204 3
58 193 3
59 194 3
60 195 3
61 208 3
62 209 3
63 210 3
64 211 3
65 212 3
66 213 3
67 214 3
68 215 3
69 216 3
70 205 3
71 206 3
72 207 3
73 220 3
74 221 3
75 222 3
76 223 3
77 224 3
78 225 3
79 226 3
80 227 3
81 228 3
82 217 3
83 218 3
84 219 3
85 232 3
86 233 3
87 234 3
88 235 3
89 236 3
90 237 3
91 238 3
92 239 3
93 240 3
94 229 3
95 230 3
96 231 3
97 244 3
98 245 3
99 246 3
100 247 3
101 248 3
102 249 3
103 250 3
104 251 3
105 252 3
106 241 3
107 242 3
108 243 3
109 256 3
110 257 3
111 258 3
112 259 3
113 260 3
114 261 3
115 262 3
116 263 3
117 264 3
118 253 3
119 254 3
120 255 3
121 268 3
122 269 3
123 270 3
124 271 3
125 272 3
126 273 3
127 274 3
128 275 3
129 276 3
130 265 3
131 266 3
132 267 3
133 280 3
134 281 3
135 282 3
136 283 3
137 284 3
138 285 3
139 286 3
140 287 3
141 288 3
142 277 3
143 278 3
144 279 3
1 37 4
2 38 4
3 39 4
4 40 4
5 41 4
6 42 4
7 43 4
8 44 4
9 45 4
10 46 4
11 47 4
12 48 4
13 49 4
14 50 4
15 51 4
16 52 4
17 53 4
18 54 4
19 55 4
20 56 4
21 57 4
22 58 4
23 59 4
24 60 4
25 61 4
26 62 4
27 63 4
28 64 4
29 65 4
30 66 4
31 67 4
32 68 4
33 69 4
34 70 4
35 71 4
36 72 4
37 73 4
38 74 4
39 75 4
40 76 4
41 77 4
42 78 4
43 79 4
44 80 4
45 81 4
46 82 4
47 83 4
48 84 4
49 85 4
50 86 4
51 87 4
52 88 4
53 89 4
54 90 4
55 91 4
56 92 4
57 93 4
58 94 4
59 95 4
60 96 4
61 97 4
62 98 4
63 99 4
64 100 4
65 101 4
66 102 4
67 103 4
68 104 4
69 105 4
70 106 4
71 107 4
72 108 4
73 109 4
74 110 4
75 111 4
76 112 4
77 113 4
78 114 4
79 115 4
80 116 4
81 117 4
82 118 4
83 119 4
84 120 4
85 121 4
86 122 4
87 123 4
88 124 4
89 125 4
90 126 4
91 127 4
92 128 4
93 129 4
94 130 4
95 131 4
96 132 4
97 133 4
98 134 4
99 135 4
100 136 4
101 137 4
102 138 4
103 139 4
104 140 4
105 141 4
106 142 4
107 143 4
108 144 4
109 1 4
110 2 4
111 3 4
112 4 4
113 5 4
114 6 4
115 7 4
116 8 4
117 9 4
118 10 4
119 11 4
120 12 4
121 13 4
122 14 4
123 15 4
124 16 4
125 17 4
126 18 4
127 19 4
128 20 4
129 21 4
130 22 4
131 23 4
132 24 4
133 25 4
134 26 4
135 27 4
136 28 4
137 29 4
138 30 4
139 31 4
140 32 4
141 33 4
142 34 4
143 35 4
144 36 4
1 8 5
2 9 5
3 10 5
4 11 5
5 12 5
6 1 5
7 2 5
8 3 5
9 4 5
10 5 5
11 6 5
12 7 5
13 20 5
14 21 5
15 22 5
16 23 5
17 24 5
18 13 5
19 14 5
20 15 5
21 16 5
22 17 5
23 18 5
24 19 5
25 32 5
26 33 5
27 34 5
28 35 5
29 36 5
30 25 5
31 26 5
32 27 5
33 28 5
34 29 5
35 30 5
36 31 5
37 44 5
38 45 5
39 46 5
40 47 5
41 48 5
42 37 5
43 38 5
44 39 5
45 40 5
46 41 5
47 42 5
48 43 5
49 56 5
50 57 5
51 58 5
52 59 5
53 60 5
54 49 5
55 50 5
56 51 5
57 52 5
58 53 5
59 54 5
60 55 5
61 68 5
62 69 5
63 70 5
64 71 5
65 72 5
66 61 5
67 62 5
68 63 5
69 64 5
70 65 5
71 66 5
72 67 5
73 80 5
74 81 5
75 82 5
76 83 5
77 84 5
78 73 5
79 74 5
80 75 5
81 76 5
82 77 5
83 78 5
84 79 5
85 92 5
86 93 5
87 94 5
88 95 5
89 96 5
90 85 5
91 86 5
92 87 5
93 88 5
94 89 5
95 90 5
96 91 5
97 104 5
98 105 5
99 106 5
100 107 5
101 108 5
102 97 5
103 98 5
104 99 5
105 100 5
106 101 5
107 102 5
108 103 5
109 116 5
110 117 5
111 118 5
112 119 5
113 120 5
114 109 5
115 110 5
116 111 5
117 112 5
118 113 5
119 114 5
120 115 5
121 128 5
122 129 5
123 130 5
124 131 5
125 132 5
126 121 5
127 122 5
128 123 5
129 124 5
130 125 5
131 126 5
132 127 5
133 140 5
134 141 5
135 142 5
136 143 5
137 144 5
138 133 5
139 134 5
140 135 5
141 136 5
142 137 5
143 138 5
144 139 5
