%%MatrixMarket matrix coordinate integer general
%
144 288 864
1 253 0
2 254 0
3 255 0
4 256 0
5 257 0
6 258 0
7 259 0
8 260 0
9 261 0
10 262 0
11 263 0
12 264 0
13 265 0
14 266 0
15 267 0
16 268 0
17 269 0
18 270 0
19 271 0
20 272 0
21 273 0
22 274 0
23 275 0
24 276 0
25 277 0
26 278 0
27 279 0
28 280 0
29 281 0
30 282 0
31 283 0
32 284 0
33 285 0
34 286 0
35 287 0
36 288 0
37 145 0
38 146 0
39 147 0
40 148 0
41 149 0
42 150 0
43 151 0
44 152 0
45 153 0
46 154 0
47 155 0
48 156 0
49 157 0
50 158 0
51 159 0
52 160 0
53 161 0
54 162 0
55 163 0
56 164 0
57 165 0
58 166 0
59 167 0
60 168 0
61 169 0
62 170 0
63 171 0
64 172 0
65 173 0
66 174 0
67 175 0
68 176 0
69 177 0
70 178 0
71 179 0
72 180 0
73 181 0
74 182 0
75 183 0
76 184 0
77 185 0
78 186 0
79 187 0
80 188 0
81 189 0
82 190 0
83 191 0
84 192 0
85 193 0
86 194 0
87 195 0
88 196 0
89 197 0
90 198 0
91 199 0
92 200 0
93 201 0
94 202 0
95 203 0
96 204 0
97 205 0
98 206 0
99 207 0
100 208 0
101 209 0
102 210 0
103 211 0
104 212 0
105 213 0
106 214 0
107 215 0
108 216 0
109 217 0
110 218 0
111 219 0
112 220 0
113 221 0
114 222 0
115 223 0
116 224 0
117 225 0
118 226 0
119 227 0
120 228 0
121 229 0
122 230 0
123 231 0
124 232 0
125 233 0
126 234 0
127 235 0
128 236 0
129 237 0
130 238 0
131 239 0
132 240 0
133 241 0
134 242 0
135 243 0
136 244 0
137 245 0
138 246 0
139 247 0
140 248 0
141 249 0
142 250 0
143 251 0
144 252 0
1 150 1
2 151 1
3 152 1
4 153 1
5 154 1
6 155 1
7 156 1
8 145 1
9 146 1
10 147 1
11 148 1
12 149 1
13 162 1
14 163 1
15 164 1
16 165 1
17 166 1
18 167 1
19 168 1
20 157 1
21 158 1
22 159 1
23 160 1
24 161 1
25 174 1
26 175 1
27 176 1
28 177 1
29 178 1
30 179 1
31 180 1
32 169 1
33 170 1
34 171 1
35 172 1
36 173 1
37 186 1
38 187 1
39 188 1
40 189 1
41 190 1
42 191 1
43 192 1
44 181 1
45 182 1
46 183 1
47 184 1
48 185 1
49 198 1
50 199 1
51 200 1
52 201 1
53 202 1
54 203 1
55 204 1
56 193 1
57 194 1
58 195 1
59 196 1
60 197 1
61 210 1
62 211 1
63 212 1
64 213 1
65 214 1
66 215 1
67 216 1
68 205 1
69 206 1
70 207 1
71 208 1
72 209 1
73 222 1
74 223 1
75 224 1
76 225 1
77 226 1
78 227 1
79 228 1
80 217 1
81 218 1
82 219 1
83 220 1
84 221 1
85 234 1
86 235 1
87 236 1
88 237 1
89 238 1
90 239 1
91 240 1
92 229 1
93 230 1
94 231 1
95 232 1
96 233 1
97 246 1
98 247 1
99 248 1
100 249 1
101 250 1
102 251 1
103 252 1
104 241 1
105 242 1
106 243 1
107 244 1
108 245 1
109 258 1
110 259 1
111 260 1
112 261 1
113 262 1
114 263 1
115 264 1
116 253 1
117 254 1
118 255 1
119 256 1
120 257 1
121 270 1
122 271 1
123 272 1
124 273 1
125 274 1
126 275 1
127 276 1
128 265 1
129 266 1
130 267 1
131 268 1
132 269 1
133 282 1
134 283 1
135 284 1
136 285 1
137 286 1
138 287 1
139 288 1
140 277 1
141 278 1
142 279 1
143 280 1
144 281 1
1 133 2
2 134 2
3 135 2
4 136 2
5 137 2
6 138 2
7 139 2
8 140 2
9 141 2
10 142 2
11 143 2
12 144 2
13 1 2
14 2 2
15 3 2
16 4 2
17 5 2
18 6 2
19 7 2
20 8 2
21 9 2
22 10 2
23 11 2
24 12 2
25 13 2
26 14 2
27 15 2
28 16 2
29 17 2
30 18 2
31 19 2
32 20 2
33 21 2
34 22 2
35 23 2
36 24 2
37 25 2
38 26 2
39 27 2
40 28 2
41 29 2
42 30 2
43 31 2
44 32 2
45 33 2
46 34 2
47 35 2
48 36 2
49 37 2
50 38 2
51 39 2
52 40 2
53 41 2
54 42 2
55 43 2
56 44 2
57 45 2
58 46 2
59 47 2
60 48 2
61 49 2
62 50 2
63 51 2
64 52 2
65 53 2
66 54 2
67 55 2
68 56 2
69 57 2
70 58 2
71 59 2
72 60 2
73 61 2
74 62 2
75 63 2
76 64 2
77 65 2
78 66 2
79 67 2
80 68 2
81 69 2
82 70 2
83 71 2
84 72 2
85 73 2
86 74 2
87 75 2
88 76 2
89 77 2
90 78 2
91 79 2
92 80 2
93 81 2
94 82 2
95 83 2
96 84 2
97 85 2
98 86 2
99 87 2
100 88 2
101 89 2
102 90 2
103 91 2
104 92 2
105 93 2
106 94 2
107 95 2
108 96 2
109 97 2
110 98 2
111 99 2
112 100 2
113 101 2
114 102 2
115 103 2
116 104 2
117 105 2
118 106 2
119 107 2
120 108 2
121 109 2
122 110 2
123 111 2
124 112 2
125 113 2
126 114 2
127 115 2
128 116 2
129 117 2
130 118 2
131 119 2
132 120 2
133 121 2
134 122 2
135 123 2
136 124 2
137 125 2
138 126 2
139 127 2
140 128 2
141 129 2
142 130 2
143 131 2
144 132 2
1 121 3
2 122 3
3 123 3
4 124 3
5 125 3
6 126 3
7 127 3
8 128 3
9 129 3
10 130 3
11 131 3
12 132 3
13 133 3
14 134 3
15 135 3
16 136 3
17 137 3
18 138 3
19 139 3
20 140 3
21 141 3
22 142 3
23 143 3
24 144 3
25 1 3
26 2 3
27 3 3
28 4 3
29 5 3
30 6 3
31 7 3
32 8 3
33 9 3
34 10 3
35 11 3
36 12 3
37 13 3
38 14 3
39 15 3
40 16 3
41 17 3
42 18 3
43 19 3
44 20 3
45 21 3
46 22 3
47 23 3
48 24 3
49 25 3
50 26 3
51 27 3
52 28 3
53 29 3
54 30 3
55 31 3
56 32 3
57 33 3
58 34 3
59 35 3
60 36 3
61 37 3
62 38 3
63 39 3
64 40 3
65 41 3
66 42 3
67 43 3
68 44 3
69 45 3
70 46 3
71 47 3
72 48 3
73 49 3
74 50 3
75 51 3
76 52 3
77 53 3
78 54 3
79 55 3
80 56 3
81 57 3
82 58 3
83 59 3
84 60 3
85 61 3
86 62 3
87 63 3
88 64 3
89 65 3
90 66 3
91 67 3
92 68 3
93 69 3
94 70 3
95 71 3
96 72 3
97 73 3
98 74 3
99 75 3
100 76 3
101 77 3
102 78 3
103 79 3
104 80 3
105 81 3
106 82 3
107 83 3
108 84 3
109 85 3
110 86 3
111 87 3
112 88 3
113 89 3
114 90 3
115 91 3
116 92 3
117 93 3
118 94 3
119 95 3
120 96 3
121 97 3
122 98 3
123 99 3
124 100 3
125 101 3
126 102 3
127 103 3
128 104 3
129 105 3
130 106 3
131 107 3
132 108 3
133 109 3
134 110 3
135 111 3
136 112 3
137 113 3
138 114 3
139 115 3
140 116 3
141 117 3
142 118 3
143 119 3
144 120 3
1 10 4
2 11 4
3 12 4
4 1 4
5 2 4
6 3 4
7 4 4
8 5 4
9 6 4
10 7 4
11 8 4
12 9 4
13 22 4
14 23 4
15 24 4
16 13 4
17 14 4
18 15 4
19 16 4
20 17 4
21 18 4
22 19 4
23 20 4
24 21 4
25 34 4
26 35 4
27 36 4
28 25 4
29 26 4
30 27 4
31 28 4
32 29 4
33 30 4
34 31 4
35 32 4
36 33 4
37 46 4
38 47 4
39 48 4
40 37 4
41 38 4
42 39 4
43 40 4
44 41 4
45 42 4
46 43 4
47 44 4
48 45 4
49 58 4
50 59 4
51 60 4
52 49 4
53 50 4
54 51 4
55 52 4
56 53 4
57 54 4
58 55 4
59 56 4
60 57 4
61 70 4
62 71 4
63 72 4
64 61 4
65 62 4
66 63 4
67 64 4
68 65 4
69 66 4
70 67 4
71 68 4
72 69 4
73 82 4
74 83 4
75 84 4
76 73 4
77 74 4
78 75 4
79 76 4
80 77 4
81 78 4
82 79 4
83 80 4
84 81 4
85 94 4
86 95 4
87 96 4
88 85 4
89 86 4
90 87 4
91 88 4
92 89 4
93 90 4
94 91 4
95 92 4
96 93 4
97 106 4
98 107 4
99 108 4
100 97 4
101 98 4
102 99 4
103 100 4
104 101 4
105 102 4
106 103 4
107 104 4
108 105 4
109 118 4
110 119 4
111 120 4
112 109 4
113 110 4
114 111 4
115 112 4
116 113 4
117 114 4
118 115 4
119 116 4
120 117 4
121 130 4
122 131 4
123 132 4
124 121 4
125 122 4
126 123 4
127 124 4
128 125 4
129 126 4
130 127 4
131 128 4
132 129 4
133 142 4
134 143 4
135 144 4
136 133 4
137 134 4
138 135 4
139 136 4
140 137 4
141 138 4
142 139 4
143 140 4
144 141 4
1 155 5
2 156 5
3 145 5
4 146 5
5 147 5
6 148 5
7 149 5
8 150 5
9 151 5
10 152 5
11 153 5
12 154 5
13 167 5
14 168 5
15 157 5
16 158 5
17 159 5
18 160 5
19 161 5
20 162 5
21 163 5
22 164 5
23 165 5
24 166 5
25 179 5
26 180 5
27 169 5
28 170 5
29 171 5
30 172 5
31 173 5
32 174 5
33 175 5
34 176 5
35 177 5
36 178 5
37 191 5
38 192 5
39 181 5
40 182 5
41 183 5
42 184 5
43 185 5
44 186 5
45 187 5
46 188 5
47 189 5
48 190 5
49 203 5
50 204 5
51 193 5
52 194 5
53 195 5
54 196 5
55 197 5
56 198 5
57 199 5
58 200 5
59 201 5
60 202 5
61 215 5
62 216 5
63 205 5
64 206 5
65 207 5
66 208 5
67 209 5
68 210 5
69 211 5
70 212 5
71 213 5
72 214 5
73 227 5
74 228 5
75 217 5
76 218 5
77 219 5
78 220 5
79 221 5
80 222 5
81 223 5
82 224 5
83 225 5
84 226 5
85 239 5
86 240 5
87 229 5
88 230 5
89 231 5
90 232 5
91 233 5
92 234 5
93 235 5
94 236 5
95 237 5
96 238 5
97 251 5
98 252 5
99 241 5
100 242 5
101 243 5
102 244 5
103 245 5
104 246 5
105 247 5
106 248 5
107 249 5
108 250 5
109 263 5
110 264 5
111 253 5
112 254 5
113 255 5
114 256 5
115 257 5
116 258 5
117 259 5
118 260 5
119 261 5
120 262 5
121 275 5
122 276 5
123 265 5
124 266 5
125 267 5
126 268 5
127 269 5
128 270 5
129 271 5
130 272 5
131 273 5
132 274 5
133 287 5
134 288 5
135 277 5
136 278 5
137 279 5
138 280 5
139 281 5
140 282 5
141 283 5
142 284 5
143 285 5
144 286 5
