%%MatrixMarket matrix coordinate integer general
%
12 288 600
1 113 1
1 115 1
1 116 1
1 117 1
1 118 1
1 120 1
1 125 1
1 127 1
1 128 1
1 129 1
1 130 1
1 132 1
1 153 1
1 154 1
1 155 1
1 156 1
1 181 1
1 184 1
1 185 1
1 186 1
1 187 1
1 188 1
1 191 1
1 192 1
1 193 1
1 194 1
1 195 1
1 196 1
1 197 1
1 198 1
1 199 1
1 200 1
1 201 1
1 202 1
1 203 1
1 204 1
1 217 1
1 219 1
1 221 1
1 224 1
1 225 1
1 227 1
1 229 1
1 231 1
1 233 1
1 235 1
1 237 1
1 239 1
1 253 1
1 254 1
1 256 1
1 258 1
1 260 1
1 261 1
1 262 1
1 263 1
2 114 1
2 116 1
2 118 1
2 125 1
2 126 1
2 127 1
2 128 1
2 129 1
2 130 1
2 140 1
2 142 1
2 144 1
2 154 1
2 156 1
2 164 1
2 166 1
2 183 1
2 190 1
2 194 1
2 195 1
2 196 1
2 197 1
2 198 1
2 199 1
2 201 1
2 202 1
2 203 1
2 204 1
2 205 1
2 206 1
2 207 1
2 208 1
2 209 1
2 210 1
2 211 1
2 212 1
2 213 1
2 214 1
2 215 1
2 216 1
2 224 1
2 229 1
2 231 1
2 233 1
2 234 1
2 235 1
2 237 1
2 239 1
2 241 1
2 243 1
2 245 1
2 247 1
2 249 1
2 251 1
2 254 1
2 258 1
2 261 1
2 267 1
2 269 1
2 272 1
3 163 1
3 167 1
3 193 1
3 195 1
3 196 1
3 197 1
3 198 1
3 200 1
3 202 1
3 203 1
3 229 1
3 231 1
3 237 1
3 239 1
3 265 1
3 266 1
3 270 1
3 273 1
4 164 1
4 168 1
4 194 1
4 196 1
4 197 1
4 198 1
4 199 1
4 201 1
4 203 1
4 204 1
4 230 1
4 232 1
4 238 1
4 240 1
4 266 1
4 267 1
4 271 1
4 274 1
5 114 1
5 116 1
5 118 1
5 126 1
5 132 1
5 137 1
5 139 1
5 141 1
5 154 1
5 156 1
5 163 1
5 165 1
5 183 1
5 190 1
5 199 1
5 204 1
5 224 1
5 229 1
5 230 1
5 231 1
5 232 1
5 234 1
5 235 1
5 236 1
5 237 1
5 238 1
5 239 1
5 240 1
5 254 1
5 258 1
5 261 1
5 266 1
5 268 1
5 269 1
5 271 1
5 275 1
6 115 1
6 116 1
6 117 1
6 118 1
6 119 1
6 120 1
6 127 1
6 129 1
6 131 1
6 137 1
6 139 1
6 141 1
6 153 1
6 154 1
6 155 1
6 156 1
6 163 1
6 166 1
6 167 1
6 168 1
6 181 1
6 184 1
6 185 1
6 186 1
6 187 1
6 188 1
6 191 1
6 192 1
6 193 1
6 196 1
6 197 1
6 198 1
6 200 1
6 203 1
6 218 1
6 220 1
6 222 1
6 223 1
6 226 1
6 228 1
6 229 1
6 231 1
6 236 1
6 237 1
6 239 1
6 253 1
6 254 1
6 256 1
6 258 1
6 259 1
6 264 1
6 265 1
6 270 1
6 276 1
7 115 1
7 116 1
7 117 1
7 118 1
7 119 1
7 120 1
7 126 1
7 132 1
7 137 1
7 138 1
7 143 1
7 144 1
7 153 1
7 154 1
7 155 1
7 156 1
7 165 1
7 166 1
7 167 1
7 168 1
7 173 1
7 178 1
7 179 1
7 180 1
7 181 1
7 184 1
7 185 1
7 186 1
7 187 1
7 188 1
7 191 1
7 192 1
7 193 1
7 196 1
7 197 1
7 198 1
7 199 1
7 200 1
7 203 1
7 204 1
7 206 1
7 207 1
7 209 1
7 211 1
7 213 1
7 216 1
7 218 1
7 220 1
7 222 1
7 223 1
7 226 1
7 228 1
7 230 1
7 232 1
7 234 1
7 235 1
7 238 1
7 240 1
7 241 1
7 242 1
7 244 1
7 246 1
7 249 1
7 250 1
7 251 1
7 252 1
7 253 1
7 254 1
7 256 1
7 258 1
7 259 1
7 264 1
7 265 1
7 266 1
7 268 1
7 271 1
7 277 1
7 278 1
7 281 1
7 282 1
8 114 1
8 120 1
8 128 1
8 130 1
8 132 1
8 137 1
8 143 1
8 153 1
8 154 1
8 155 1
8 156 1
8 165 1
8 167 1
8 174 1
8 180 1
8 182 1
8 183 1
8 189 1
8 190 1
8 194 1
8 201 1
8 205 1
8 207 1
8 210 1
8 212 1
8 214 1
8 215 1
8 217 1
8 218 1
8 219 1
8 220 1
8 221 1
8 222 1
8 225 1
8 226 1
8 227 1
8 228 1
8 235 1
8 244 1
8 246 1
8 248 1
8 253 1
8 254 1
8 256 1
8 258 1
8 259 1
8 260 1
8 262 1
8 265 1
8 268 1
8 269 1
8 270 1
8 277 1
8 278 1
8 283 1
8 284 1
9 115 1
9 116 1
9 117 1
9 118 1
9 119 1
9 120 1
9 126 1
9 132 1
9 137 1
9 138 1
9 143 1
9 144 1
9 153 1
9 154 1
9 155 1
9 156 1
9 165 1
9 166 1
9 167 1
9 168 1
9 173 1
9 175 1
9 178 1
9 180 1
9 181 1
9 184 1
9 185 1
9 186 1
9 187 1
9 188 1
9 191 1
9 192 1
9 193 1
9 196 1
9 197 1
9 198 1
9 199 1
9 200 1
9 203 1
9 204 1
9 205 1
9 206 1
9 208 1
9 210 1
9 211 1
9 212 1
9 213 1
9 214 1
9 215 1
9 216 1
9 218 1
9 220 1
9 222 1
9 223 1
9 226 1
9 228 1
9 230 1
9 232 1
9 234 1
9 235 1
9 238 1
9 240 1
9 242 1
9 243 1
9 244 1
9 246 1
9 250 1
9 252 1
9 253 1
9 254 1
9 256 1
9 258 1
9 259 1
9 264 1
9 265 1
9 266 1
9 268 1
9 271 1
9 281 1
9 285 1
10 176 1
10 180 1
10 206 1
10 208 1
10 209 1
10 210 1
10 211 1
10 213 1
10 215 1
10 216 1
10 242 1
10 244 1
10 250 1
10 252 1
10 278 1
10 279 1
10 283 1
10 286 1
11 114 1
11 120 1
11 128 1
11 130 1
11 132 1
11 137 1
11 143 1
11 153 1
11 154 1
11 155 1
11 156 1
11 165 1
11 167 1
11 173 1
11 177 1
11 178 1
11 180 1
11 182 1
11 183 1
11 189 1
11 190 1
11 194 1
11 201 1
11 207 1
11 209 1
11 211 1
11 216 1
11 217 1
11 218 1
11 219 1
11 220 1
11 221 1
11 222 1
11 225 1
11 226 1
11 227 1
11 228 1
11 235 1
11 241 1
11 242 1
11 244 1
11 246 1
11 247 1
11 249 1
11 250 1
11 251 1
11 252 1
11 253 1
11 254 1
11 256 1
11 258 1
11 259 1
11 260 1
11 262 1
11 265 1
11 268 1
11 269 1
11 270 1
11 278 1
11 280 1
11 281 1
11 287 1
12 114 1
12 120 1
12 128 1
12 130 1
12 132 1
12 137 1
12 143 1
12 153 1
12 154 1
12 155 1
12 156 1
12 165 1
12 167 1
12 178 1
12 180 1
12 182 1
12 183 1
12 189 1
12 190 1
12 194 1
12 201 1
12 205 1
12 206 1
12 208 1
12 209 1
12 210 1
12 211 1
12 212 1
12 213 1
12 215 1
12 216 1
12 217 1
12 218 1
12 219 1
12 220 1
12 221 1
12 222 1
12 225 1
12 226 1
12 227 1
12 228 1
12 235 1
12 242 1
12 244 1
12 246 1
12 250 1
12 252 1
12 253 1
12 254 1
12 256 1
12 258 1
12 259 1
12 260 1
12 262 1
12 265 1
12 268 1
12 269 1
12 270 1
12 278 1
12 281 1
12 283 1
12 288 1
