%%MatrixMarket matrix coordinate integer general
%
12 288 658
1 2 1
1 7 1
1 8 1
1 9 1
1 12 1
1 13 1
1 14 1
1 16 1
1 17 1
1 18 1
1 19 1
1 21 1
1 23 1
1 24 1
1 25 1
1 26 1
1 28 1
1 29 1
1 30 1
1 31 1
1 33 1
1 35 1
1 36 1
1 42 1
1 51 1
1 54 1
1 63 1
1 66 1
1 76 1
1 83 1
1 85 1
1 88 1
1 92 1
1 95 1
1 97 1
1 100 1
1 104 1
1 107 1
1 110 1
1 112 1
1 121 1
1 122 1
1 124 1
1 133 1
1 134 1
1 136 1
1 145 1
1 148 1
1 149 1
1 263 1
2 8 1
2 17 1
2 25 1
2 26 1
2 30 1
2 33 1
2 62 1
2 64 1
2 66 1
2 72 1
2 98 1
2 100 1
2 101 1
2 103 1
2 105 1
2 106 1
2 107 1
2 108 1
2 136 1
2 157 1
2 162 1
2 272 1
3 1 1
3 2 1
3 6 1
3 7 1
3 8 1
3 11 1
3 12 1
3 13 1
3 16 1
3 21 1
3 24 1
3 26 1
3 30 1
3 31 1
3 35 1
3 37 1
3 39 1
3 42 1
3 43 1
3 45 1
3 47 1
3 49 1
3 51 1
3 53 1
3 54 1
3 55 1
3 57 1
3 59 1
3 65 1
3 67 1
3 69 1
3 71 1
3 73 1
3 74 1
3 77 1
3 78 1
3 79 1
3 80 1
3 81 1
3 84 1
3 85 1
3 86 1
3 87 1
3 89 1
3 90 1
3 91 1
3 92 1
3 93 1
3 94 1
3 96 1
3 98 1
3 99 1
3 100 1
3 101 1
3 103 1
3 105 1
3 106 1
3 108 1
3 109 1
3 110 1
3 111 1
3 112 1
3 122 1
3 124 1
3 133 1
3 145 1
3 146 1
3 148 1
3 150 1
3 151 1
3 157 1
3 160 1
3 162 1
3 273 1
4 10 1
4 14 1
4 15 1
4 16 1
4 17 1
4 21 1
4 23 1
4 24 1
4 27 1
4 31 1
4 32 1
4 36 1
4 38 1
4 40 1
4 42 1
4 44 1
4 46 1
4 48 1
4 50 1
4 52 1
4 53 1
4 56 1
4 58 1
4 60 1
4 66 1
4 68 1
4 70 1
4 72 1
4 73 1
4 74 1
4 75 1
4 76 1
4 77 1
4 78 1
4 79 1
4 80 1
4 81 1
4 82 1
4 83 1
4 84 1
4 85 1
4 86 1
4 89 1
4 90 1
4 91 1
4 92 1
4 93 1
4 96 1
4 97 1
4 99 1
4 100 1
4 101 1
4 102 1
4 104 1
4 106 1
4 107 1
4 121 1
4 122 1
4 123 1
4 124 1
4 134 1
4 145 1
4 147 1
4 148 1
4 149 1
4 150 1
4 152 1
4 157 1
4 160 1
4 161 1
4 162 1
4 274 1
5 1 1
5 6 1
5 8 1
5 14 1
5 19 1
5 20 1
5 21 1
5 24 1
5 25 1
5 26 1
5 28 1
5 29 1
5 30 1
5 31 1
5 33 1
5 35 1
5 36 1
5 41 1
5 54 1
5 63 1
5 66 1
5 75 1
5 82 1
5 88 1
5 95 1
5 97 1
5 100 1
5 104 1
5 107 1
5 109 1
5 111 1
5 122 1
5 124 1
5 133 1
5 134 1
5 136 1
5 157 1
5 160 1
5 161 1
5 275 1
6 2 1
6 7 1
6 9 1
6 13 1
6 18 1
6 20 1
6 21 1
6 23 1
6 25 1
6 26 1
6 29 1
6 31 1
6 32 1
6 35 1
6 36 1
6 42 1
6 49 1
6 51 1
6 55 1
6 57 1
6 59 1
6 61 1
6 63 1
6 64 1
6 67 1
6 69 1
6 71 1
6 76 1
6 83 1
6 85 1
6 86 1
6 88 1
6 89 1
6 90 1
6 91 1
6 92 1
6 93 1
6 95 1
6 96 1
6 97 1
6 100 1
6 101 1
6 102 1
6 103 1
6 104 1
6 107 1
6 108 1
6 110 1
6 112 1
6 121 1
6 123 1
6 133 1
6 134 1
6 135 1
6 158 1
6 161 1
6 162 1
6 276 1
7 6 1
7 13 1
7 19 1
7 21 1
7 23 1
7 24 1
7 26 1
7 29 1
7 30 1
7 35 1
7 49 1
7 51 1
7 54 1
7 55 1
7 57 1
7 59 1
7 61 1
7 63 1
7 67 1
7 69 1
7 71 1
7 85 1
7 86 1
7 89 1
7 90 1
7 91 1
7 92 1
7 93 1
7 96 1
7 97 1
7 98 1
7 100 1
7 101 1
7 102 1
7 103 1
7 104 1
7 105 1
7 107 1
7 108 1
7 121 1
7 122 1
7 123 1
7 124 1
7 133 1
7 135 1
7 146 1
7 152 1
7 157 1
7 159 1
7 161 1
7 169 1
7 171 1
7 172 1
7 282 1
8 2 1
8 7 1
8 8 1
8 9 1
8 12 1
8 14 1
8 16 1
8 20 1
8 21 1
8 23 1
8 24 1
8 25 1
8 27 1
8 28 1
8 31 1
8 35 1
8 42 1
8 53 1
8 54 1
8 62 1
8 64 1
8 65 1
8 66 1
8 68 1
8 70 1
8 72 1
8 76 1
8 83 1
8 87 1
8 88 1
8 94 1
8 95 1
8 97 1
8 98 1
8 100 1
8 101 1
8 102 1
8 103 1
8 104 1
8 105 1
8 107 1
8 108 1
8 110 1
8 112 1
8 121 1
8 122 1
8 123 1
8 124 1
8 133 1
8 135 1
8 145 1
8 148 1
8 150 1
8 151 1
8 152 1
8 157 1
8 159 1
8 161 1
8 169 1
8 170 1
8 172 1
8 284 1
9 1 1
9 6 1
9 8 1
9 9 1
9 11 1
9 19 1
9 20 1
9 24 1
9 27 1
9 29 1
9 31 1
9 33 1
9 35 1
9 36 1
9 37 1
9 39 1
9 43 1
9 45 1
9 47 1
9 54 1
9 61 1
9 62 1
9 63 1
9 64 1
9 67 1
9 68 1
9 69 1
9 70 1
9 71 1
9 72 1
9 73 1
9 74 1
9 76 1
9 77 1
9 78 1
9 79 1
9 80 1
9 81 1
9 83 1
9 84 1
9 88 1
9 95 1
9 99 1
9 100 1
9 106 1
9 107 1
9 109 1
9 111 1
9 122 1
9 124 1
9 133 1
9 134 1
9 135 1
9 136 1
9 146 1
9 152 1
9 157 1
9 159 1
9 161 1
9 169 1
9 170 1
9 285 1
10 10 1
10 13 1
10 14 1
10 15 1
10 17 1
10 19 1
10 21 1
10 22 1
10 24 1
10 25 1
10 26 1
10 27 1
10 28 1
10 29 1
10 30 1
10 31 1
10 38 1
10 40 1
10 42 1
10 44 1
10 46 1
10 48 1
10 54 1
10 61 1
10 62 1
10 63 1
10 64 1
10 65 1
10 66 1
10 67 1
10 68 1
10 69 1
10 70 1
10 71 1
10 72 1
10 73 1
10 74 1
10 75 1
10 76 1
10 77 1
10 78 1
10 79 1
10 80 1
10 81 1
10 82 1
10 83 1
10 84 1
10 88 1
10 95 1
10 122 1
10 124 1
10 145 1
10 147 1
10 149 1
10 158 1
10 160 1
10 162 1
10 170 1
10 171 1
10 286 1
11 1 1
11 2 1
11 6 1
11 7 1
11 8 1
11 9 1
11 12 1
11 14 1
11 18 1
11 20 1
11 21 1
11 24 1
11 26 1
11 27 1
11 28 1
11 29 1
11 30 1
11 31 1
11 32 1
11 41 1
11 42 1
11 53 1
11 54 1
11 61 1
11 62 1
11 63 1
11 64 1
11 65 1
11 66 1
11 67 1
11 68 1
11 69 1
11 70 1
11 71 1
11 72 1
11 75 1
11 76 1
11 82 1
11 83 1
11 87 1
11 88 1
11 94 1
11 95 1
11 109 1
11 110 1
11 111 1
11 112 1
11 121 1
11 122 1
11 123 1
11 124 1
11 145 1
11 151 1
11 157 1
11 158 1
11 159 1
11 160 1
11 161 1
11 162 1
11 171 1
11 172 1
11 287 1
12 2 1
12 7 1
12 9 1
12 13 1
12 14 1
12 16 1
12 19 1
12 21 1
12 23 1
12 31 1
12 32 1
12 36 1
12 42 1
12 53 1
12 54 1
12 66 1
12 76 1
12 83 1
12 87 1
12 88 1
12 94 1
12 95 1
12 100 1
12 107 1
12 110 1
12 112 1
12 121 1
12 122 1
12 123 1
12 124 1
12 134 1
12 136 1
12 148 1
12 150 1
12 152 1
12 158 1
12 160 1
12 162 1
12 169 1
12 171 1
12 172 1
12 288 1
