%%MatrixMarket matrix coordinate integer general
%
97 196 364
1 16 0
2 18 0
3 20 0
4 22 0
5 24 0
6 26 0
7 28 0
8 29 0
9 31 0
10 33 0
11 35 0
12 37 0
13 39 0
14 41 0
16 44 0
17 46 0
18 48 0
19 50 0
20 52 0
21 54 0
22 56 0
23 57 0
24 59 0
25 61 0
26 63 0
27 65 0
28 67 0
29 69 0
31 72 0
32 74 0
33 76 0
34 78 0
35 80 0
36 82 0
37 84 0
38 85 0
39 87 0
40 89 0
41 91 0
42 93 0
43 95 0
44 97 0
46 100 0
47 102 0
48 104 0
49 106 0
50 108 0
51 110 0
52 112 0
53 113 0
54 115 0
55 117 0
56 119 0
57 121 0
58 123 0
59 125 0
61 128 0
62 130 0
63 132 0
64 134 0
65 136 0
66 138 0
67 140 0
68 141 0
69 143 0
70 145 0
71 147 0
72 149 0
73 151 0
74 153 0
76 156 0
77 158 0
78 160 0
79 162 0
80 164 0
81 166 0
82 168 0
83 169 0
84 171 0
85 173 0
86 175 0
87 177 0
88 179 0
89 181 0
91 184 0
92 186 0
93 188 0
94 190 0
95 192 0
96 194 0
97 196 0
1 2 1
2 4 1
3 6 1
4 8 1
5 10 1
6 12 1
7 14 1
8 15 1
9 17 1
10 19 1
11 21 1
12 23 1
13 25 1
14 27 1
16 30 1
17 32 1
18 34 1
19 36 1
20 38 1
21 40 1
22 42 1
23 43 1
24 45 1
25 47 1
26 49 1
27 51 1
28 53 1
29 55 1
31 58 1
32 60 1
33 62 1
34 64 1
35 66 1
36 68 1
37 70 1
38 71 1
39 73 1
40 75 1
41 77 1
42 79 1
43 81 1
44 83 1
46 86 1
47 88 1
48 90 1
49 92 1
50 94 1
51 96 1
52 98 1
53 99 1
54 101 1
55 103 1
56 105 1
57 107 1
58 109 1
59 111 1
61 114 1
62 116 1
63 118 1
64 120 1
65 122 1
66 124 1
67 126 1
68 127 1
69 129 1
70 131 1
71 133 1
72 135 1
73 137 1
74 139 1
76 142 1
77 144 1
78 146 1
79 148 1
80 150 1
81 152 1
82 154 1
83 155 1
84 157 1
85 159 1
86 161 1
87 163 1
88 165 1
89 167 1
91 170 1
92 172 1
93 174 1
94 176 1
95 178 1
96 180 1
97 182 1
1 15 2
2 17 2
3 19 2
4 21 2
5 23 2
6 25 2
7 27 2
9 30 2
10 32 2
11 34 2
12 36 2
13 38 2
14 40 2
15 42 2
16 43 2
17 45 2
18 47 2
19 49 2
20 51 2
21 53 2
22 55 2
24 58 2
25 60 2
26 62 2
27 64 2
28 66 2
29 68 2
30 70 2
31 71 2
32 73 2
33 75 2
34 77 2
35 79 2
36 81 2
37 83 2
39 86 2
40 88 2
41 90 2
42 92 2
43 94 2
44 96 2
45 98 2
46 99 2
47 101 2
48 103 2
49 105 2
50 107 2
51 109 2
52 111 2
54 114 2
55 116 2
56 118 2
57 120 2
58 122 2
59 124 2
60 126 2
61 127 2
62 129 2
63 131 2
64 133 2
65 135 2
66 137 2
67 139 2
69 142 2
70 144 2
71 146 2
72 148 2
73 150 2
74 152 2
75 154 2
76 155 2
77 157 2
78 159 2
79 161 2
80 163 2
81 165 2
82 167 2
84 170 2
85 172 2
86 174 2
87 176 2
88 178 2
89 180 2
90 182 2
91 183 2
92 185 2
93 187 2
94 189 2
95 191 2
96 193 2
97 195 2
1 1 3
2 3 3
3 5 3
4 7 3
5 9 3
6 11 3
7 13 3
9 16 3
10 18 3
11 20 3
12 22 3
13 24 3
14 26 3
15 28 3
16 29 3
17 31 3
18 33 3
19 35 3
20 37 3
21 39 3
22 41 3
24 44 3
25 46 3
26 48 3
27 50 3
28 52 3
29 54 3
30 56 3
31 57 3
32 59 3
33 61 3
34 63 3
35 65 3
36 67 3
37 69 3
39 72 3
40 74 3
41 76 3
42 78 3
43 80 3
44 82 3
45 84 3
46 85 3
47 87 3
48 89 3
49 91 3
50 93 3
51 95 3
52 97 3
54 100 3
55 102 3
56 104 3
57 106 3
58 108 3
59 110 3
60 112 3
61 113 3
62 115 3
63 117 3
64 119 3
65 121 3
66 123 3
67 125 3
69 128 3
70 130 3
71 132 3
72 134 3
73 136 3
74 138 3
75 140 3
76 141 3
77 143 3
78 145 3
79 147 3
80 149 3
81 151 3
82 153 3
84 156 3
85 158 3
86 160 3
87 162 3
88 164 3
89 166 3
90 168 3
91 169 3
92 171 3
93 173 3
94 175 3
95 177 3
96 179 3
97 181 3
