%%MatrixMarket matrix coordinate integer general
%
98 196 364
1 2 0
2 4 0
3 6 0
4 8 0
5 10 0
6 12 0
7 14 0
8 17 0
9 19 0
10 21 0
11 23 0
12 25 0
13 27 0
14 30 0
15 32 0
16 34 0
17 36 0
18 38 0
19 40 0
20 42 0
21 45 0
22 47 0
23 49 0
24 51 0
25 53 0
26 55 0
27 58 0
28 60 0
29 62 0
30 64 0
31 66 0
32 68 0
33 70 0
34 73 0
35 75 0
36 77 0
37 79 0
38 81 0
39 83 0
40 86 0
41 88 0
42 90 0
43 92 0
44 94 0
45 96 0
46 98 0
47 101 0
48 103 0
49 105 0
50 107 0
51 109 0
52 111 0
53 114 0
54 116 0
55 118 0
56 120 0
57 122 0
58 124 0
59 126 0
60 129 0
61 131 0
62 133 0
63 135 0
64 137 0
65 139 0
66 142 0
67 144 0
68 146 0
69 148 0
70 150 0
71 152 0
72 154 0
73 157 0
74 159 0
75 161 0
76 163 0
77 165 0
78 167 0
79 170 0
80 172 0
81 174 0
82 176 0
83 178 0
84 180 0
85 182 0
86 185 0
87 187 0
88 189 0
89 191 0
90 193 0
91 195 0
1 1 1
2 3 1
3 5 1
4 7 1
5 9 1
6 11 1
7 13 1
8 16 1
9 18 1
10 20 1
11 22 1
12 24 1
13 26 1
14 29 1
15 31 1
16 33 1
17 35 1
18 37 1
19 39 1
20 41 1
21 44 1
22 46 1
23 48 1
24 50 1
25 52 1
26 54 1
27 57 1
28 59 1
29 61 1
30 63 1
31 65 1
32 67 1
33 69 1
34 72 1
35 74 1
36 76 1
37 78 1
38 80 1
39 82 1
40 85 1
41 87 1
42 89 1
43 91 1
44 93 1
45 95 1
46 97 1
47 100 1
48 102 1
49 104 1
50 106 1
51 108 1
52 110 1
53 113 1
54 115 1
55 117 1
56 119 1
57 121 1
58 123 1
59 125 1
60 128 1
61 130 1
62 132 1
63 134 1
64 136 1
65 138 1
66 141 1
67 143 1
68 145 1
69 147 1
70 149 1
71 151 1
72 153 1
73 156 1
74 158 1
75 160 1
76 162 1
77 164 1
78 166 1
79 169 1
80 171 1
81 173 1
82 175 1
83 177 1
84 179 1
85 181 1
86 184 1
87 186 1
88 188 1
89 190 1
90 192 1
91 194 1
8 3 2
9 5 2
10 7 2
11 9 2
12 11 2
13 13 2
14 16 2
15 18 2
16 20 2
17 22 2
18 24 2
19 26 2
20 28 2
21 31 2
22 33 2
23 35 2
24 37 2
25 39 2
26 41 2
27 44 2
28 46 2
29 48 2
30 50 2
31 52 2
32 54 2
33 56 2
34 59 2
35 61 2
36 63 2
37 65 2
38 67 2
39 69 2
40 72 2
41 74 2
42 76 2
43 78 2
44 80 2
45 82 2
46 84 2
47 87 2
48 89 2
49 91 2
50 93 2
51 95 2
52 97 2
53 100 2
54 102 2
55 104 2
56 106 2
57 108 2
58 110 2
59 112 2
60 115 2
61 117 2
62 119 2
63 121 2
64 123 2
65 125 2
66 128 2
67 130 2
68 132 2
69 134 2
70 136 2
71 138 2
72 140 2
73 143 2
74 145 2
75 147 2
76 149 2
77 151 2
78 153 2
79 156 2
80 158 2
81 160 2
82 162 2
83 164 2
84 166 2
85 168 2
86 171 2
87 173 2
88 175 2
89 177 2
90 179 2
91 181 2
92 184 2
93 186 2
94 188 2
95 190 2
96 192 2
97 194 2
98 196 2
8 2 3
9 4 3
10 6 3
11 8 3
12 10 3
13 12 3
14 15 3
15 17 3
16 19 3
17 21 3
18 23 3
19 25 3
20 27 3
21 30 3
22 32 3
23 34 3
24 36 3
25 38 3
26 40 3
27 43 3
28 45 3
29 47 3
30 49 3
31 51 3
32 53 3
33 55 3
34 58 3
35 60 3
36 62 3
37 64 3
38 66 3
39 68 3
40 71 3
41 73 3
42 75 3
43 77 3
44 79 3
45 81 3
46 83 3
47 86 3
48 88 3
49 90 3
50 92 3
51 94 3
52 96 3
53 99 3
54 101 3
55 103 3
56 105 3
57 107 3
58 109 3
59 111 3
60 114 3
61 116 3
62 118 3
63 120 3
64 122 3
65 124 3
66 127 3
67 129 3
68 131 3
69 133 3
70 135 3
71 137 3
72 139 3
73 142 3
74 144 3
75 146 3
76 148 3
77 150 3
78 152 3
79 155 3
80 157 3
81 159 3
82 161 3
83 163 3
84 165 3
85 167 3
86 170 3
87 172 3
88 174 3
89 176 3
90 178 3
91 180 3
92 183 3
93 185 3
94 187 3
95 189 3
96 191 3
97 193 3
98 195 3
