%%MatrixMarket matrix coordinate integer general
%
49 100 180
1 12 0
2 14 0
3 16 0
4 18 0
5 20 0
6 21 0
7 23 0
8 25 0
9 27 0
10 29 0
12 32 0
13 34 0
14 36 0
15 38 0
16 40 0
17 41 0
18 43 0
19 45 0
20 47 0
21 49 0
23 52 0
24 54 0
25 56 0
26 58 0
27 60 0
28 61 0
29 63 0
30 65 0
31 67 0
32 69 0
34 72 0
35 74 0
36 76 0
37 78 0
38 80 0
39 81 0
40 83 0
41 85 0
42 87 0
43 89 0
45 92 0
46 94 0
47 96 0
48 98 0
49 100 0
1 2 1
2 4 1
3 6 1
4 8 1
5 10 1
6 11 1
7 13 1
8 15 1
9 17 1
10 19 1
12 22 1
13 24 1
14 26 1
15 28 1
16 30 1
17 31 1
18 33 1
19 35 1
20 37 1
21 39 1
23 42 1
24 44 1
25 46 1
26 48 1
27 50 1
28 51 1
29 53 1
30 55 1
31 57 1
32 59 1
34 62 1
35 64 1
36 66 1
37 68 1
38 70 1
39 71 1
40 73 1
41 75 1
42 77 1
43 79 1
45 82 1
46 84 1
47 86 1
48 88 1
49 90 1
1 11 2
2 13 2
3 15 2
4 17 2
5 19 2
7 22 2
8 24 2
9 26 2
10 28 2
11 30 2
12 31 2
13 33 2
14 35 2
15 37 2
16 39 2
18 42 2
19 44 2
20 46 2
21 48 2
22 50 2
23 51 2
24 53 2
25 55 2
26 57 2
27 59 2
29 62 2
30 64 2
31 66 2
32 68 2
33 70 2
34 71 2
35 73 2
36 75 2
37 77 2
38 79 2
40 82 2
41 84 2
42 86 2
43 88 2
44 90 2
45 91 2
46 93 2
47 95 2
48 97 2
49 99 2
1 1 3
2 3 3
3 5 3
4 7 3
5 9 3
7 12 3
8 14 3
9 16 3
10 18 3
11 20 3
12 21 3
13 23 3
14 25 3
15 27 3
16 29 3
18 32 3
19 34 3
20 36 3
21 38 3
22 40 3
23 41 3
24 43 3
25 45 3
26 47 3
27 49 3
29 52 3
30 54 3
31 56 3
32 58 3
33 60 3
34 61 3
35 63 3
36 65 3
37 67 3
38 69 3
40 72 3
41 74 3
42 76 3
43 78 3
44 80 3
45 81 3
46 83 3
47 85 3
48 87 3
49 89 3
