%%MatrixMarket matrix coordinate integer general
%
50 100 180
1 2 0
2 4 0
3 6 0
4 8 0
5 10 0
6 13 0
7 15 0
8 17 0
9 19 0
10 22 0
11 24 0
12 26 0
13 28 0
14 30 0
15 33 0
16 35 0
17 37 0
18 39 0
19 42 0
20 44 0
21 46 0
22 48 0
23 50 0
24 53 0
25 55 0
26 57 0
27 59 0
28 62 0
29 64 0
30 66 0
31 68 0
32 70 0
33 73 0
34 75 0
35 77 0
36 79 0
37 82 0
38 84 0
39 86 0
40 88 0
41 90 0
42 93 0
43 95 0
44 97 0
45 99 0
1 1 1
2 3 1
3 5 1
4 7 1
5 9 1
6 12 1
7 14 1
8 16 1
9 18 1
10 21 1
11 23 1
12 25 1
13 27 1
14 29 1
15 32 1
16 34 1
17 36 1
18 38 1
19 41 1
20 43 1
21 45 1
22 47 1
23 49 1
24 52 1
25 54 1
26 56 1
27 58 1
28 61 1
29 63 1
30 65 1
31 67 1
32 69 1
33 72 1
34 74 1
35 76 1
36 78 1
37 81 1
38 83 1
39 85 1
40 87 1
41 89 1
42 92 1
43 94 1
44 96 1
45 98 1
6 3 2
7 5 2
8 7 2
9 9 2
10 12 2
11 14 2
12 16 2
13 18 2
14 20 2
15 23 2
16 25 2
17 27 2
18 29 2
19 32 2
20 34 2
21 36 2
22 38 2
23 40 2
24 43 2
25 45 2
26 47 2
27 49 2
28 52 2
29 54 2
30 56 2
31 58 2
32 60 2
33 63 2
34 65 2
35 67 2
36 69 2
37 72 2
38 74 2
39 76 2
40 78 2
41 80 2
42 83 2
43 85 2
44 87 2
45 89 2
46 92 2
47 94 2
48 96 2
49 98 2
50 100 2
6 2 3
7 4 3
8 6 3
9 8 3
10 11 3
11 13 3
12 15 3
13 17 3
14 19 3
15 22 3
16 24 3
17 26 3
18 28 3
19 31 3
20 33 3
21 35 3
22 37 3
23 39 3
24 42 3
25 44 3
26 46 3
27 48 3
28 51 3
29 53 3
30 55 3
31 57 3
32 59 3
33 62 3
34 64 3
35 66 3
36 68 3
37 71 3
38 73 3
39 75 3
40 77 3
41 79 3
42 82 3
43 84 3
44 86 3
45 88 3
46 91 3
47 93 3
48 95 3
49 97 3
50 99 3
