%%MatrixMarket matrix coordinate integer general
%
36 72 216
1 19 0
2 20 0
3 21 0
4 22 0
5 23 0
6 24 0
7 25 0
8 26 0
9 27 0
10 28 0
11 29 0
12 30 0
13 31 0
14 32 0
15 33 0
16 34 0
17 35 0
18 36 0
19 1 0
20 2 0
21 3 0
22 4 0
23 5 0
24 6 0
25 7 0
26 8 0
27 9 0
28 10 0
29 11 0
30 12 0
31 13 0
32 14 0
33 15 0
34 16 0
35 17 0
36 18 0
1 43 1
2 44 1
3 45 1
4 46 1
5 47 1
6 48 1
7 49 1
8 50 1
9 51 1
10 52 1
11 53 1
12 54 1
13 55 1
14 56 1
15 57 1
16 58 1
17 59 1
18 60 1
19 61 1
20 62 1
21 63 1
22 64 1
23 65 1
24 66 1
25 67 1
26 68 1
27 69 1
28 70 1
29 71 1
30 72 1
31 37 1
32 38 1
33 39 1
34 40 1
35 41 1
36 42 1
1 49 2
2 50 2
3 51 2
4 52 2
5 53 2
6 54 2
7 55 2
8 56 2
9 57 2
10 58 2
11 59 2
12 60 2
13 61 2
14 62 2
15 63 2
16 64 2
17 65 2
18 66 2
19 67 2
20 68 2
21 69 2
22 70 2
23 71 2
24 72 2
25 37 2
26 38 2
27 39 2
28 40 2
29 41 2
30 42 2
31 43 2
32 44 2
33 45 2
34 46 2
35 47 2
36 48 2
1 40 3
2 41 3
3 42 3
4 37 3
5 38 3
6 39 3
7 46 3
8 47 3
9 48 3
10 43 3
11 44 3
12 45 3
13 52 3
14 53 3
15 54 3
16 49 3
17 50 3
18 51 3
19 58 3
20 59 3
21 60 3
22 55 3
23 56 3
24 57 3
25 64 3
26 65 3
27 66 3
28 61 3
29 62 3
30 63 3
31 70 3
32 71 3
33 72 3
34 67 3
35 68 3
36 69 3
1 2 4
2 3 4
3 4 4
4 5 4
5 6 4
6 1 4
7 8 4
8 9 4
9 10 4
10 11 4
11 12 4
12 7 4
13 14 4
14 15 4
15 16 4
16 17 4
17 18 4
18 13 4
19 20 4
20 21 4
21 22 4
22 23 4
23 24 4
24 19 4
25 26 4
26 27 4
27 28 4
28 29 4
29 30 4
30 25 4
31 32 4
32 33 4
33 34 4
34 35 4
35 36 4
36 31 4
1 3 5
2 4 5
3 5 5
4 6 5
5 1 5
6 2 5
7 9 5
8 10 5
9 11 5
10 12 5
11 7 5
12 8 5
13 15 5
14 16 5
15 17 5
16 18 5
17 13 5
18 14 5
19 21 5
20 22 5
21 23 5
22 24 5
23 19 5
24 20 5
25 27 5
26 28 5
27 29 5
28 30 5
29 25 5
30 26 5
31 33 5
32 34 5
33 35 5
34 36 5
35 31 5
36 32 5
