%%MatrixMarket matrix coordinate integer general
%
36 72 216
1 42 0
2 37 0
3 38 0
4 39 0
5 40 0
6 41 0
7 48 0
8 43 0
9 44 0
10 45 0
11 46 0
12 47 0
13 54 0
14 49 0
15 50 0
16 51 0
17 52 0
18 53 0
19 60 0
20 55 0
21 56 0
22 57 0
23 58 0
24 59 0
25 66 0
26 61 0
27 62 0
28 63 0
29 64 0
30 65 0
31 72 0
32 67 0
33 68 0
34 69 0
35 70 0
36 71 0
1 41 1
2 42 1
3 37 1
4 38 1
5 39 1
6 40 1
7 47 1
8 48 1
9 43 1
10 44 1
11 45 1
12 46 1
13 53 1
14 54 1
15 49 1
16 50 1
17 51 1
18 52 1
19 59 1
20 60 1
21 55 1
22 56 1
23 57 1
24 58 1
25 65 1
26 66 1
27 61 1
28 62 1
29 63 1
30 64 1
31 71 1
32 72 1
33 67 1
34 68 1
35 69 1
36 70 1
1 31 2
2 32 2
3 33 2
4 34 2
5 35 2
6 36 2
7 1 2
8 2 2
9 3 2
10 4 2
11 5 2
12 6 2
13 7 2
14 8 2
15 9 2
16 10 2
17 11 2
18 12 2
19 13 2
20 14 2
21 15 2
22 16 2
23 17 2
24 18 2
25 19 2
26 20 2
27 21 2
28 22 2
29 23 2
30 24 2
31 25 2
32 26 2
33 27 2
34 28 2
35 29 2
36 30 2
1 25 3
2 26 3
3 27 3
4 28 3
5 29 3
6 30 3
7 31 3
8 32 3
9 33 3
10 34 3
11 35 3
12 36 3
13 1 3
14 2 3
15 3 3
16 4 3
17 5 3
18 6 3
19 7 3
20 8 3
21 9 3
22 10 3
23 11 3
24 12 3
25 13 3
26 14 3
27 15 3
28 16 3
29 17 3
30 18 3
31 19 3
32 20 3
33 21 3
34 22 3
35 23 3
36 24 3
1 4 4
2 5 4
3 6 4
4 1 4
5 2 4
6 3 4
7 10 4
8 11 4
9 12 4
10 7 4
11 8 4
12 9 4
13 16 4
14 17 4
15 18 4
16 13 4
17 14 4
18 15 4
19 22 4
20 23 4
21 24 4
22 19 4
23 20 4
24 21 4
25 28 4
26 29 4
27 30 4
28 25 4
29 26 4
30 27 4
31 34 4
32 35 4
33 36 4
34 31 4
35 32 4
36 33 4
1 55 5
2 56 5
3 57 5
4 58 5
5 59 5
6 60 5
7 61 5
8 62 5
9 63 5
10 64 5
11 65 5
12 66 5
13 67 5
14 68 5
15 69 5
16 70 5
17 71 5
18 72 5
19 37 5
20 38 5
21 39 5
22 40 5
23 41 5
24 42 5
25 43 5
26 44 5
27 45 5
28 46 5
29 47 5
30 48 5
31 49 5
32 50 5
33 51 5
34 52 5
35 53 5
36 54 5
