%%MatrixMarket matrix coordinate integer general
%
12 72 148
1 21 1
1 24 1
1 27 1
1 30 1
1 41 1
1 42 1
1 56 1
1 57 1
2 21 1
2 23 1
2 29 1
2 36 1
2 47 1
2 59 1
2 60 1
2 61 1
3 22 1
3 23 1
3 24 1
3 34 1
3 35 1
3 36 1
3 41 1
3 45 1
3 47 1
3 48 1
3 49 1
3 50 1
3 51 1
3 52 1
3 53 1
3 54 1
3 55 1
3 58 1
3 59 1
3 62 1
4 22 1
4 23 1
4 24 1
4 27 1
4 30 1
4 33 1
4 34 1
4 35 1
4 41 1
4 45 1
4 49 1
4 50 1
4 51 1
4 52 1
4 53 1
4 54 1
4 55 1
4 58 1
4 59 1
4 63 1
5 22 1
5 23 1
5 24 1
5 34 1
5 35 1
5 36 1
5 41 1
5 46 1
5 49 1
5 50 1
5 51 1
5 52 1
5 53 1
5 54 1
5 55 1
5 58 1
5 59 1
5 64 1
6 21 1
6 22 1
6 24 1
6 28 1
6 30 1
6 36 1
6 41 1
6 46 1
6 55 1
6 58 1
6 60 1
6 65 1
7 28 1
7 29 1
7 30 1
7 34 1
7 35 1
7 36 1
7 45 1
7 49 1
7 50 1
7 51 1
7 52 1
7 53 1
7 54 1
7 66 1
8 21 1
8 22 1
8 30 1
8 35 1
8 36 1
8 46 1
8 54 1
8 59 1
8 67 1
8 68 1
9 50 1
9 51 1
9 52 1
9 53 1
9 67 1
9 69 1
10 21 1
10 22 1
10 30 1
10 35 1
10 36 1
10 46 1
10 51 1
10 52 1
10 53 1
10 59 1
10 67 1
10 70 1
11 49 1
11 50 1
11 51 1
11 54 1
11 67 1
11 71 1
12 21 1
12 22 1
12 30 1
12 35 1
12 36 1
12 46 1
12 49 1
12 50 1
12 51 1
12 52 1
12 54 1
12 59 1
12 67 1
12 72 1
