%%MatrixMarket matrix coordinate integer general
%
12 72 180
1 6 1
1 7 1
1 8 1
1 11 1
1 12 1
1 13 1
1 14 1
1 17 1
1 18 1
1 25 1
1 31 1
1 37 1
1 38 1
1 57 1
2 1 1
2 7 1
2 8 1
2 9 1
2 12 1
2 13 1
2 14 1
2 15 1
2 16 1
2 17 1
2 18 1
2 26 1
2 31 1
2 38 1
2 39 1
2 40 1
2 43 1
2 61 1
3 1 1
3 2 1
3 6 1
3 10 1
3 11 1
3 12 1
3 13 1
3 14 1
3 16 1
3 17 1
3 18 1
3 20 1
3 26 1
3 31 1
3 37 1
3 40 1
3 44 1
3 62 1
4 3 1
4 12 1
4 13 1
4 14 1
4 17 1
4 18 1
4 31 1
4 43 1
4 44 1
4 63 1
5 1 1
5 4 1
5 5 1
5 7 1
5 8 1
5 9 1
5 12 1
5 13 1
5 14 1
5 15 1
5 18 1
5 19 1
5 20 1
5 26 1
5 32 1
5 37 1
5 38 1
5 39 1
5 43 1
5 64 1
6 1 1
6 9 1
6 10 1
6 11 1
6 12 1
6 15 1
6 16 1
6 17 1
6 18 1
6 19 1
6 20 1
6 25 1
6 31 1
6 38 1
6 39 1
6 40 1
6 44 1
6 65 1
7 1 1
7 7 1
7 8 1
7 10 1
7 11 1
7 13 1
7 15 1
7 16 1
7 17 1
7 18 1
7 20 1
7 25 1
7 26 1
7 31 1
7 38 1
7 39 1
7 40 1
7 43 1
7 44 1
7 66 1
8 2 1
8 7 1
8 8 1
8 9 1
8 12 1
8 15 1
8 26 1
8 31 1
8 32 1
8 39 1
8 43 1
8 68 1
9 3 1
9 9 1
9 10 1
9 11 1
9 12 1
9 13 1
9 14 1
9 16 1
9 17 1
9 18 1
9 25 1
9 31 1
9 32 1
9 40 1
9 44 1
9 69 1
10 4 1
10 5 1
10 6 1
10 7 1
10 8 1
10 10 1
10 11 1
10 19 1
10 25 1
10 26 1
10 38 1
10 43 1
10 44 1
10 70 1
11 6 1
11 7 1
11 8 1
11 12 1
11 19 1
11 25 1
11 37 1
11 38 1
11 43 1
11 71 1
12 1 1
12 7 1
12 8 1
12 9 1
12 20 1
12 26 1
12 38 1
12 39 1
12 44 1
12 72 1
