%%MatrixMarket matrix coordinate integer general
%
24 49 84
1 9 0
2 11 0
3 13 0
5 15 0
6 17 0
7 19 0
8 21 0
9 23 0
10 25 0
11 27 0
13 29 0
14 31 0
15 33 0
16 35 0
17 37 0
18 39 0
19 41 0
21 43 0
22 45 0
23 47 0
24 49 0
1 2 1
2 4 1
3 6 1
5 8 1
6 10 1
7 12 1
8 14 1
9 16 1
10 18 1
11 20 1
13 22 1
14 24 1
15 26 1
16 28 1
17 30 1
18 32 1
19 34 1
21 36 1
22 38 1
23 40 1
24 42 1
1 8 2
2 10 2
3 12 2
4 14 2
6 16 2
7 18 2
8 20 2
9 22 2
10 24 2
11 26 2
12 28 2
14 30 2
15 32 2
16 34 2
17 36 2
18 38 2
19 40 2
20 42 2
22 44 2
23 46 2
24 48 2
1 1 3
2 3 3
3 5 3
4 7 3
6 9 3
7 11 3
8 13 3
9 15 3
10 17 3
11 19 3
12 21 3
14 23 3
15 25 3
16 27 3
17 29 3
18 31 3
19 33 3
20 35 3
22 37 3
23 39 3
24 41 3
