%%MatrixMarket matrix coordinate integer general
%
24 49 84
1 2 0
2 4 0
3 6 0
4 10 0
5 12 0
6 14 0
7 16 0
8 18 0
9 20 0
10 24 0
11 26 0
12 28 0
13 30 0
14 32 0
15 34 0
16 38 0
17 40 0
18 42 0
19 44 0
20 46 0
21 48 0
1 1 1
2 3 1
3 5 1
4 9 1
5 11 1
6 13 1
7 15 1
8 17 1
9 19 1
10 23 1
11 25 1
12 27 1
13 29 1
14 31 1
15 33 1
16 37 1
17 39 1
18 41 1
19 43 1
20 45 1
21 47 1
4 3 2
5 5 2
6 7 2
7 9 2
8 11 2
9 13 2
10 17 2
11 19 2
12 21 2
13 23 2
14 25 2
15 27 2
16 31 2
17 33 2
18 35 2
19 37 2
20 39 2
21 41 2
22 45 2
23 47 2
24 49 2
4 2 3
5 4 3
6 6 3
7 8 3
8 10 3
9 12 3
10 16 3
11 18 3
12 20 3
13 22 3
14 24 3
15 26 3
16 30 3
17 32 3
18 34 3
19 36 3
20 38 3
21 40 3
22 44 3
23 46 3
24 48 3
