%%MatrixMarket matrix coordinate integer general
%
71 144 264
1 14 0
2 16 0
3 18 0
4 20 0
5 22 0
6 24 0
7 25 0
8 27 0
9 29 0
10 31 0
11 33 0
12 35 0
14 38 0
15 40 0
16 42 0
17 44 0
18 46 0
19 48 0
20 49 0
21 51 0
22 53 0
23 55 0
24 57 0
25 59 0
27 62 0
28 64 0
29 66 0
30 68 0
31 70 0
32 72 0
33 73 0
34 75 0
35 77 0
36 79 0
37 81 0
38 83 0
40 86 0
41 88 0
42 90 0
43 92 0
44 94 0
45 96 0
46 97 0
47 99 0
48 101 0
49 103 0
50 105 0
51 107 0
53 110 0
54 112 0
55 114 0
56 116 0
57 118 0
58 120 0
59 121 0
60 123 0
61 125 0
62 127 0
63 129 0
64 131 0
66 134 0
67 136 0
68 138 0
69 140 0
70 142 0
71 144 0
1 2 1
2 4 1
3 6 1
4 8 1
5 10 1
6 12 1
7 13 1
8 15 1
9 17 1
10 19 1
11 21 1
12 23 1
14 26 1
15 28 1
16 30 1
17 32 1
18 34 1
19 36 1
20 37 1
21 39 1
22 41 1
23 43 1
24 45 1
25 47 1
27 50 1
28 52 1
29 54 1
30 56 1
31 58 1
32 60 1
33 61 1
34 63 1
35 65 1
36 67 1
37 69 1
38 71 1
40 74 1
41 76 1
42 78 1
43 80 1
44 82 1
45 84 1
46 85 1
47 87 1
48 89 1
49 91 1
50 93 1
51 95 1
53 98 1
54 100 1
55 102 1
56 104 1
57 106 1
58 108 1
59 109 1
60 111 1
61 113 1
62 115 1
63 117 1
64 119 1
66 122 1
67 124 1
68 126 1
69 128 1
70 130 1
71 132 1
1 13 2
2 15 2
3 17 2
4 19 2
5 21 2
6 23 2
8 26 2
9 28 2
10 30 2
11 32 2
12 34 2
13 36 2
14 37 2
15 39 2
16 41 2
17 43 2
18 45 2
19 47 2
21 50 2
22 52 2
23 54 2
24 56 2
25 58 2
26 60 2
27 61 2
28 63 2
29 65 2
30 67 2
31 69 2
32 71 2
34 74 2
35 76 2
36 78 2
37 80 2
38 82 2
39 84 2
40 85 2
41 87 2
42 89 2
43 91 2
44 93 2
45 95 2
47 98 2
48 100 2
49 102 2
50 104 2
51 106 2
52 108 2
53 109 2
54 111 2
55 113 2
56 115 2
57 117 2
58 119 2
60 122 2
61 124 2
62 126 2
63 128 2
64 130 2
65 132 2
66 133 2
67 135 2
68 137 2
69 139 2
70 141 2
71 143 2
1 1 3
2 3 3
3 5 3
4 7 3
5 9 3
6 11 3
8 14 3
9 16 3
10 18 3
11 20 3
12 22 3
13 24 3
14 25 3
15 27 3
16 29 3
17 31 3
18 33 3
19 35 3
21 38 3
22 40 3
23 42 3
24 44 3
25 46 3
26 48 3
27 49 3
28 51 3
29 53 3
30 55 3
31 57 3
32 59 3
34 62 3
35 64 3
36 66 3
37 68 3
38 70 3
39 72 3
40 73 3
41 75 3
42 77 3
43 79 3
44 81 3
45 83 3
47 86 3
48 88 3
49 90 3
50 92 3
51 94 3
52 96 3
53 97 3
54 99 3
55 101 3
56 103 3
57 105 3
58 107 3
60 110 3
61 112 3
62 114 3
63 116 3
64 118 3
65 120 3
66 121 3
67 123 3
68 125 3
69 127 3
70 129 3
71 131 3
