%%MatrixMarket matrix coordinate integer general
%
72 144 264
1 2 0
2 4 0
3 6 0
4 8 0
5 10 0
6 12 0
7 15 0
8 17 0
9 19 0
10 21 0
11 23 0
12 26 0
13 28 0
14 30 0
15 32 0
16 34 0
17 36 0
18 39 0
19 41 0
20 43 0
21 45 0
22 47 0
23 50 0
24 52 0
25 54 0
26 56 0
27 58 0
28 60 0
29 63 0
30 65 0
31 67 0
32 69 0
33 71 0
34 74 0
35 76 0
36 78 0
37 80 0
38 82 0
39 84 0
40 87 0
41 89 0
42 91 0
43 93 0
44 95 0
45 98 0
46 100 0
47 102 0
48 104 0
49 106 0
50 108 0
51 111 0
52 113 0
53 115 0
54 117 0
55 119 0
56 122 0
57 124 0
58 126 0
59 128 0
60 130 0
61 132 0
62 135 0
63 137 0
64 139 0
65 141 0
66 143 0
1 1 1
2 3 1
3 5 1
4 7 1
5 9 1
6 11 1
7 14 1
8 16 1
9 18 1
10 20 1
11 22 1
12 25 1
13 27 1
14 29 1
15 31 1
16 33 1
17 35 1
18 38 1
19 40 1
20 42 1
21 44 1
22 46 1
23 49 1
24 51 1
25 53 1
26 55 1
27 57 1
28 59 1
29 62 1
30 64 1
31 66 1
32 68 1
33 70 1
34 73 1
35 75 1
36 77 1
37 79 1
38 81 1
39 83 1
40 86 1
41 88 1
42 90 1
43 92 1
44 94 1
45 97 1
46 99 1
47 101 1
48 103 1
49 105 1
50 107 1
51 110 1
52 112 1
53 114 1
54 116 1
55 118 1
56 121 1
57 123 1
58 125 1
59 127 1
60 129 1
61 131 1
62 134 1
63 136 1
64 138 1
65 140 1
66 142 1
7 3 2
8 5 2
9 7 2
10 9 2
11 11 2
12 14 2
13 16 2
14 18 2
15 20 2
16 22 2
17 24 2
18 27 2
19 29 2
20 31 2
21 33 2
22 35 2
23 38 2
24 40 2
25 42 2
26 44 2
27 46 2
28 48 2
29 51 2
30 53 2
31 55 2
32 57 2
33 59 2
34 62 2
35 64 2
36 66 2
37 68 2
38 70 2
39 72 2
40 75 2
41 77 2
42 79 2
43 81 2
44 83 2
45 86 2
46 88 2
47 90 2
48 92 2
49 94 2
50 96 2
51 99 2
52 101 2
53 103 2
54 105 2
55 107 2
56 110 2
57 112 2
58 114 2
59 116 2
60 118 2
61 120 2
62 123 2
63 125 2
64 127 2
65 129 2
66 131 2
67 134 2
68 136 2
69 138 2
70 140 2
71 142 2
72 144 2
7 2 3
8 4 3
9 6 3
10 8 3
11 10 3
12 13 3
13 15 3
14 17 3
15 19 3
16 21 3
17 23 3
18 26 3
19 28 3
20 30 3
21 32 3
22 34 3
23 37 3
24 39 3
25 41 3
26 43 3
27 45 3
28 47 3
29 50 3
30 52 3
31 54 3
32 56 3
33 58 3
34 61 3
35 63 3
36 65 3
37 67 3
38 69 3
39 71 3
40 74 3
41 76 3
42 78 3
43 80 3
44 82 3
45 85 3
46 87 3
47 89 3
48 91 3
49 93 3
50 95 3
51 98 3
52 100 3
53 102 3
54 104 3
55 106 3
56 109 3
57 111 3
58 113 3
59 115 3
60 117 3
61 119 3
62 122 3
63 124 3
64 126 3
65 128 3
66 130 3
67 133 3
68 135 3
69 137 3
70 139 3
71 141 3
72 143 3
