%%MatrixMarket matrix coordinate integer general
%
45 90 270
1 28 0
2 29 0
3 30 0
4 31 0
5 32 0
6 33 0
7 34 0
8 35 0
9 36 0
10 37 0
11 38 0
12 39 0
13 40 0
14 41 0
15 42 0
16 43 0
17 44 0
18 45 0
19 1 0
20 2 0
21 3 0
22 4 0
23 5 0
24 6 0
25 7 0
26 8 0
27 9 0
28 10 0
29 11 0
30 12 0
31 13 0
32 14 0
33 15 0
34 16 0
35 17 0
36 18 0
37 19 0
38 20 0
39 21 0
40 22 0
41 23 0
42 24 0
43 25 0
44 26 0
45 27 0
1 46 1
2 47 1
3 48 1
4 49 1
5 50 1
6 51 1
7 52 1
8 53 1
9 54 1
10 55 1
11 56 1
12 57 1
13 58 1
14 59 1
15 60 1
16 61 1
17 62 1
18 63 1
19 64 1
20 65 1
21 66 1
22 67 1
23 68 1
24 69 1
25 70 1
26 71 1
27 72 1
28 73 1
29 74 1
30 75 1
31 76 1
32 77 1
33 78 1
34 79 1
35 80 1
36 81 1
37 82 1
38 83 1
39 84 1
40 85 1
41 86 1
42 87 1
43 88 1
44 89 1
45 90 1
1 52 2
2 53 2
3 54 2
4 55 2
5 56 2
6 57 2
7 58 2
8 59 2
9 60 2
10 61 2
11 62 2
12 63 2
13 64 2
14 65 2
15 66 2
16 67 2
17 68 2
18 69 2
19 70 2
20 71 2
21 72 2
22 73 2
23 74 2
24 75 2
25 76 2
26 77 2
27 78 2
28 79 2
29 80 2
30 81 2
31 82 2
32 83 2
33 84 2
34 85 2
35 86 2
36 87 2
37 88 2
38 89 2
39 90 2
40 46 2
41 47 2
42 48 2
43 49 2
44 50 2
45 51 2
1 67 3
2 68 3
3 69 3
4 70 3
5 71 3
6 72 3
7 73 3
8 74 3
9 75 3
10 76 3
11 77 3
12 78 3
13 79 3
14 80 3
15 81 3
16 82 3
17 83 3
18 84 3
19 85 3
20 86 3
21 87 3
22 88 3
23 89 3
24 90 3
25 46 3
26 47 3
27 48 3
28 49 3
29 50 3
30 51 3
31 52 3
32 53 3
33 54 3
34 55 3
35 56 3
36 57 3
37 58 3
38 59 3
39 60 3
40 61 3
41 62 3
42 63 3
43 64 3
44 65 3
45 66 3
1 2 4
2 3 4
3 1 4
4 5 4
5 6 4
6 4 4
7 8 4
8 9 4
9 7 4
10 11 4
11 12 4
12 10 4
13 14 4
14 15 4
15 13 4
16 17 4
17 18 4
18 16 4
19 20 4
20 21 4
21 19 4
22 23 4
23 24 4
24 22 4
25 26 4
26 27 4
27 25 4
28 29 4
29 30 4
30 28 4
31 32 4
32 33 4
33 31 4
34 35 4
35 36 4
36 34 4
37 38 4
38 39 4
39 37 4
40 41 4
41 42 4
42 40 4
43 44 4
44 45 4
45 43 4
1 3 5
2 1 5
3 2 5
4 6 5
5 4 5
6 5 5
7 9 5
8 7 5
9 8 5
10 12 5
11 10 5
12 11 5
13 15 5
14 13 5
15 14 5
16 18 5
17 16 5
18 17 5
19 21 5
20 19 5
21 20 5
22 24 5
23 22 5
24 23 5
25 27 5
26 25 5
27 26 5
28 30 5
29 28 5
30 29 5
31 33 5
32 31 5
33 32 5
34 36 5
35 34 5
36 35 5
37 39 5
38 37 5
39 38 5
40 42 5
41 40 5
42 41 5
43 45 5
44 43 5
45 44 5
