%%MatrixMarket matrix coordinate integer general
%
45 90 270
1 48 0
2 46 0
3 47 0
4 51 0
5 49 0
6 50 0
7 54 0
8 52 0
9 53 0
10 57 0
11 55 0
12 56 0
13 60 0
14 58 0
15 59 0
16 63 0
17 61 0
18 62 0
19 66 0
20 64 0
21 65 0
22 69 0
23 67 0
24 68 0
25 72 0
26 70 0
27 71 0
28 75 0
29 73 0
30 74 0
31 78 0
32 76 0
33 77 0
34 81 0
35 79 0
36 80 0
37 84 0
38 82 0
39 83 0
40 87 0
41 85 0
42 86 0
43 90 0
44 88 0
45 89 0
1 47 1
2 48 1
3 46 1
4 50 1
5 51 1
6 49 1
7 53 1
8 54 1
9 52 1
10 56 1
11 57 1
12 55 1
13 59 1
14 60 1
15 58 1
16 62 1
17 63 1
18 61 1
19 65 1
20 66 1
21 64 1
22 68 1
23 69 1
24 67 1
25 71 1
26 72 1
27 70 1
28 74 1
29 75 1
30 73 1
31 77 1
32 78 1
33 76 1
34 80 1
35 81 1
36 79 1
37 83 1
38 84 1
39 82 1
40 86 1
41 87 1
42 85 1
43 89 1
44 90 1
45 88 1
1 1 2
2 2 2
3 3 2
4 4 2
5 5 2
6 6 2
7 7 2
8 8 2
9 9 2
10 10 2
11 11 2
12 12 2
13 13 2
14 14 2
15 15 2
16 16 2
17 17 2
18 18 2
19 19 2
20 20 2
21 21 2
22 22 2
23 23 2
24 24 2
25 25 2
26 26 2
27 27 2
28 28 2
29 29 2
30 30 2
31 31 2
32 32 2
33 33 2
34 34 2
35 35 2
36 36 2
37 37 2
38 38 2
39 39 2
40 40 2
41 41 2
42 42 2
43 43 2
44 44 2
45 45 2
1 40 3
2 41 3
3 42 3
4 43 3
5 44 3
6 45 3
7 1 3
8 2 3
9 3 3
10 4 3
11 5 3
12 6 3
13 7 3
14 8 3
15 9 3
16 10 3
17 11 3
18 12 3
19 13 3
20 14 3
21 15 3
22 16 3
23 17 3
24 18 3
25 19 3
26 20 3
27 21 3
28 22 3
29 23 3
30 24 3
31 25 3
32 26 3
33 27 3
34 28 3
35 29 3
36 30 3
37 31 3
38 32 3
39 33 3
40 34 3
41 35 3
42 36 3
43 37 3
44 38 3
45 39 3
1 25 4
2 26 4
3 27 4
4 28 4
5 29 4
6 30 4
7 31 4
8 32 4
9 33 4
10 34 4
11 35 4
12 36 4
13 37 4
14 38 4
15 39 4
16 40 4
17 41 4
18 42 4
19 43 4
20 44 4
21 45 4
22 1 4
23 2 4
24 3 4
25 4 4
26 5 4
27 6 4
28 7 4
29 8 4
30 9 4
31 10 4
32 11 4
33 12 4
34 13 4
35 14 4
36 15 4
37 16 4
38 17 4
39 18 4
40 19 4
41 20 4
42 21 4
43 22 4
44 23 4
45 24 4
1 64 5
2 65 5
3 66 5
4 67 5
5 68 5
6 69 5
7 70 5
8 71 5
9 72 5
10 73 5
11 74 5
12 75 5
13 76 5
14 77 5
15 78 5
16 79 5
17 80 5
18 81 5
19 82 5
20 83 5
21 84 5
22 85 5
23 86 5
24 87 5
25 88 5
26 89 5
27 90 5
28 46 5
29 47 5
30 48 5
31 49 5
32 50 5
33 51 5
34 52 5
35 53 5
36 54 5
37 55 5
38 56 5
39 57 5
40 58 5
41 59 5
42 60 5
43 61 5
44 62 5
45 63 5
