%%MatrixMarket matrix coordinate integer general
%
8 90 112
1 41 1
1 42 1
1 44 1
1 45 1
1 50 1
1 51 1
1 59 1
1 60 1
1 62 1
1 63 1
1 65 1
1 66 1
1 77 1
1 78 1
2 38 1
2 39 1
2 41 1
2 45 1
2 49 1
2 50 1
2 59 1
2 62 1
2 65 1
2 67 1
2 68 1
2 69 1
2 76 1
2 77 1
2 79 1
2 80 1
2 81 1
2 82 1
3 38 1
3 44 1
3 49 1
3 51 1
3 55 1
3 56 1
3 57 1
3 67 1
3 68 1
3 69 1
3 77 1
3 83 1
4 39 1
4 41 1
4 42 1
4 44 1
4 49 1
4 51 1
4 55 1
4 56 1
4 57 1
4 59 1
4 60 1
4 62 1
4 63 1
4 65 1
4 66 1
4 67 1
4 68 1
4 69 1
4 77 1
4 84 1
5 49 1
5 50 1
5 58 1
5 59 1
5 67 1
5 68 1
5 76 1
5 77 1
5 85 1
5 86 1
6 41 1
6 42 1
6 44 1
6 45 1
6 49 1
6 50 1
6 58 1
6 59 1
6 62 1
6 63 1
6 65 1
6 66 1
6 67 1
6 69 1
6 76 1
6 77 1
6 85 1
6 87 1
7 52 1
7 53 1
7 61 1
7 62 1
7 70 1
7 71 1
7 79 1
7 80 1
7 88 1
7 89 1
8 52 1
8 54 1
8 61 1
8 63 1
8 70 1
8 72 1
8 79 1
8 81 1
8 88 1
8 90 1
