%%MatrixMarket matrix coordinate integer general
%
8 90 148
1 2 1
1 3 1
1 4 1
1 5 1
1 7 1
1 8 1
1 9 1
1 10 1
1 12 1
1 13 1
1 14 1
1 15 1
1 20 1
1 21 1
1 22 1
1 23 1
1 28 1
1 30 1
1 31 1
1 32 1
1 37 1
1 46 1
1 47 1
1 78 1
2 2 1
2 3 1
2 5 1
2 6 1
2 7 1
2 8 1
2 9 1
2 13 1
2 14 1
2 15 1
2 19 1
2 22 1
2 26 1
2 27 1
2 28 1
2 29 1
2 30 1
2 32 1
2 33 1
2 43 1
2 46 1
2 82 1
3 1 1
3 3 1
3 4 1
3 6 1
3 9 1
3 13 1
3 14 1
3 15 1
3 16 1
3 17 1
3 20 1
3 23 1
3 26 1
3 27 1
3 28 1
3 29 1
3 30 1
3 31 1
3 33 1
3 34 1
3 35 1
3 43 1
3 47 1
3 83 1
4 1 1
4 2 1
4 4 1
4 5 1
4 7 1
4 9 1
4 13 1
4 14 1
4 15 1
4 16 1
4 18 1
4 21 1
4 22 1
4 23 1
4 26 1
4 27 1
4 31 1
4 32 1
4 34 1
4 36 1
4 43 1
4 46 1
4 47 1
4 84 1
5 2 1
5 8 1
5 16 1
5 17 1
5 18 1
5 28 1
5 29 1
5 30 1
5 34 1
5 36 1
5 47 1
5 86 1
6 3 1
6 7 1
6 8 1
6 16 1
6 17 1
6 18 1
6 22 1
6 23 1
6 24 1
6 34 1
6 35 1
6 46 1
6 47 1
6 87 1
7 1 1
7 3 1
7 4 1
7 5 1
7 6 1
7 7 1
7 8 1
7 9 1
7 20 1
7 23 1
7 26 1
7 28 1
7 29 1
7 30 1
7 47 1
7 89 1
8 1 1
8 2 1
8 4 1
8 5 1
8 6 1
8 21 1
8 22 1
8 23 1
8 27 1
8 46 1
8 47 1
8 90 1
