%%MatrixMarket matrix coordinate integer general
%
60 121 220
1 13 0
2 15 0
3 17 0
4 19 0
5 21 0
7 23 0
8 25 0
9 27 0
10 29 0
11 31 0
12 33 0
13 35 0
14 37 0
15 39 0
16 41 0
17 43 0
19 45 0
20 47 0
21 49 0
22 51 0
23 53 0
24 55 0
25 57 0
26 59 0
27 61 0
28 63 0
29 65 0
31 67 0
32 69 0
33 71 0
34 73 0
35 75 0
36 77 0
37 79 0
38 81 0
39 83 0
40 85 0
41 87 0
43 89 0
44 91 0
45 93 0
46 95 0
47 97 0
48 99 0
49 101 0
50 103 0
51 105 0
52 107 0
53 109 0
55 111 0
56 113 0
57 115 0
58 117 0
59 119 0
60 121 0
1 2 1
2 4 1
3 6 1
4 8 1
5 10 1
7 12 1
8 14 1
9 16 1
10 18 1
11 20 1
12 22 1
13 24 1
14 26 1
15 28 1
16 30 1
17 32 1
19 34 1
20 36 1
21 38 1
22 40 1
23 42 1
24 44 1
25 46 1
26 48 1
27 50 1
28 52 1
29 54 1
31 56 1
32 58 1
33 60 1
34 62 1
35 64 1
36 66 1
37 68 1
38 70 1
39 72 1
40 74 1
41 76 1
43 78 1
44 80 1
45 82 1
46 84 1
47 86 1
48 88 1
49 90 1
50 92 1
51 94 1
52 96 1
53 98 1
55 100 1
56 102 1
57 104 1
58 106 1
59 108 1
60 110 1
1 12 2
2 14 2
3 16 2
4 18 2
5 20 2
6 22 2
8 24 2
9 26 2
10 28 2
11 30 2
12 32 2
13 34 2
14 36 2
15 38 2
16 40 2
17 42 2
18 44 2
20 46 2
21 48 2
22 50 2
23 52 2
24 54 2
25 56 2
26 58 2
27 60 2
28 62 2
29 64 2
30 66 2
32 68 2
33 70 2
34 72 2
35 74 2
36 76 2
37 78 2
38 80 2
39 82 2
40 84 2
41 86 2
42 88 2
44 90 2
45 92 2
46 94 2
47 96 2
48 98 2
49 100 2
50 102 2
51 104 2
52 106 2
53 108 2
54 110 2
56 112 2
57 114 2
58 116 2
59 118 2
60 120 2
1 1 3
2 3 3
3 5 3
4 7 3
5 9 3
6 11 3
8 13 3
9 15 3
10 17 3
11 19 3
12 21 3
13 23 3
14 25 3
15 27 3
16 29 3
17 31 3
18 33 3
20 35 3
21 37 3
22 39 3
23 41 3
24 43 3
25 45 3
26 47 3
27 49 3
28 51 3
29 53 3
30 55 3
32 57 3
33 59 3
34 61 3
35 63 3
36 65 3
37 67 3
38 69 3
39 71 3
40 73 3
41 75 3
42 77 3
44 79 3
45 81 3
46 83 3
47 85 3
48 87 3
49 89 3
50 91 3
51 93 3
52 95 3
53 97 3
54 99 3
56 101 3
57 103 3
58 105 3
59 107 3
60 109 3
