%%MatrixMarket matrix coordinate integer general
%
60 121 220
1 2 0
2 4 0
3 6 0
4 8 0
5 10 0
6 14 0
7 16 0
8 18 0
9 20 0
10 22 0
11 24 0
12 26 0
13 28 0
14 30 0
15 32 0
16 36 0
17 38 0
18 40 0
19 42 0
20 44 0
21 46 0
22 48 0
23 50 0
24 52 0
25 54 0
26 58 0
27 60 0
28 62 0
29 64 0
30 66 0
31 68 0
32 70 0
33 72 0
34 74 0
35 76 0
36 80 0
37 82 0
38 84 0
39 86 0
40 88 0
41 90 0
42 92 0
43 94 0
44 96 0
45 98 0
46 102 0
47 104 0
48 106 0
49 108 0
50 110 0
51 112 0
52 114 0
53 116 0
54 118 0
55 120 0
1 1 1
2 3 1
3 5 1
4 7 1
5 9 1
6 13 1
7 15 1
8 17 1
9 19 1
10 21 1
11 23 1
12 25 1
13 27 1
14 29 1
15 31 1
16 35 1
17 37 1
18 39 1
19 41 1
20 43 1
21 45 1
22 47 1
23 49 1
24 51 1
25 53 1
26 57 1
27 59 1
28 61 1
29 63 1
30 65 1
31 67 1
32 69 1
33 71 1
34 73 1
35 75 1
36 79 1
37 81 1
38 83 1
39 85 1
40 87 1
41 89 1
42 91 1
43 93 1
44 95 1
45 97 1
46 101 1
47 103 1
48 105 1
49 107 1
50 109 1
51 111 1
52 113 1
53 115 1
54 117 1
55 119 1
6 3 2
7 5 2
8 7 2
9 9 2
10 11 2
11 13 2
12 15 2
13 17 2
14 19 2
15 21 2
16 25 2
17 27 2
18 29 2
19 31 2
20 33 2
21 35 2
22 37 2
23 39 2
24 41 2
25 43 2
26 47 2
27 49 2
28 51 2
29 53 2
30 55 2
31 57 2
32 59 2
33 61 2
34 63 2
35 65 2
36 69 2
37 71 2
38 73 2
39 75 2
40 77 2
41 79 2
42 81 2
43 83 2
44 85 2
45 87 2
46 91 2
47 93 2
48 95 2
49 97 2
50 99 2
51 101 2
52 103 2
53 105 2
54 107 2
55 109 2
56 113 2
57 115 2
58 117 2
59 119 2
60 121 2
6 2 3
7 4 3
8 6 3
9 8 3
10 10 3
11 12 3
12 14 3
13 16 3
14 18 3
15 20 3
16 24 3
17 26 3
18 28 3
19 30 3
20 32 3
21 34 3
22 36 3
23 38 3
24 40 3
25 42 3
26 46 3
27 48 3
28 50 3
29 52 3
30 54 3
31 56 3
32 58 3
33 60 3
34 62 3
35 64 3
36 68 3
37 70 3
38 72 3
39 74 3
40 76 3
41 78 3
42 80 3
43 82 3
44 84 3
45 86 3
46 90 3
47 92 3
48 94 3
49 96 3
50 98 3
51 100 3
52 102 3
53 104 3
54 106 3
55 108 3
56 112 3
57 114 3
58 116 3
59 118 3
60 120 3
