%%MatrixMarket matrix coordinate integer general
%
40 81 144
1 11 0
2 13 0
3 15 0
4 17 0
6 19 0
7 21 0
8 23 0
9 25 0
10 27 0
11 29 0
12 31 0
13 33 0
14 35 0
16 37 0
17 39 0
18 41 0
19 43 0
20 45 0
21 47 0
22 49 0
23 51 0
24 53 0
26 55 0
27 57 0
28 59 0
29 61 0
30 63 0
31 65 0
32 67 0
33 69 0
34 71 0
36 73 0
37 75 0
38 77 0
39 79 0
40 81 0
1 2 1
2 4 1
3 6 1
4 8 1
6 10 1
7 12 1
8 14 1
9 16 1
10 18 1
11 20 1
12 22 1
13 24 1
14 26 1
16 28 1
17 30 1
18 32 1
19 34 1
20 36 1
21 38 1
22 40 1
23 42 1
24 44 1
26 46 1
27 48 1
28 50 1
29 52 1
30 54 1
31 56 1
32 58 1
33 60 1
34 62 1
36 64 1
37 66 1
38 68 1
39 70 1
40 72 1
1 10 2
2 12 2
3 14 2
4 16 2
5 18 2
7 20 2
8 22 2
9 24 2
10 26 2
11 28 2
12 30 2
13 32 2
14 34 2
15 36 2
17 38 2
18 40 2
19 42 2
20 44 2
21 46 2
22 48 2
23 50 2
24 52 2
25 54 2
27 56 2
28 58 2
29 60 2
30 62 2
31 64 2
32 66 2
33 68 2
34 70 2
35 72 2
37 74 2
38 76 2
39 78 2
40 80 2
1 1 3
2 3 3
3 5 3
4 7 3
5 9 3
7 11 3
8 13 3
9 15 3
10 17 3
11 19 3
12 21 3
13 23 3
14 25 3
15 27 3
17 29 3
18 31 3
19 33 3
20 35 3
21 37 3
22 39 3
23 41 3
24 43 3
25 45 3
27 47 3
28 49 3
29 51 3
30 53 3
31 55 3
32 57 3
33 59 3
34 61 3
35 63 3
37 65 3
38 67 3
39 69 3
40 71 3
