%%MatrixMarket matrix coordinate integer general
%
40 81 144
1 2 0
2 4 0
3 6 0
4 8 0
5 12 0
6 14 0
7 16 0
8 18 0
9 20 0
10 22 0
11 24 0
12 26 0
13 30 0
14 32 0
15 34 0
16 36 0
17 38 0
18 40 0
19 42 0
20 44 0
21 48 0
22 50 0
23 52 0
24 54 0
25 56 0
26 58 0
27 60 0
28 62 0
29 66 0
30 68 0
31 70 0
32 72 0
33 74 0
34 76 0
35 78 0
36 80 0
1 1 1
2 3 1
3 5 1
4 7 1
5 11 1
6 13 1
7 15 1
8 17 1
9 19 1
10 21 1
11 23 1
12 25 1
13 29 1
14 31 1
15 33 1
16 35 1
17 37 1
18 39 1
19 41 1
20 43 1
21 47 1
22 49 1
23 51 1
24 53 1
25 55 1
26 57 1
27 59 1
28 61 1
29 65 1
30 67 1
31 69 1
32 71 1
33 73 1
34 75 1
35 77 1
36 79 1
5 3 2
6 5 2
7 7 2
8 9 2
9 11 2
10 13 2
11 15 2
12 17 2
13 21 2
14 23 2
15 25 2
16 27 2
17 29 2
18 31 2
19 33 2
20 35 2
21 39 2
22 41 2
23 43 2
24 45 2
25 47 2
26 49 2
27 51 2
28 53 2
29 57 2
30 59 2
31 61 2
32 63 2
33 65 2
34 67 2
35 69 2
36 71 2
37 75 2
38 77 2
39 79 2
40 81 2
5 2 3
6 4 3
7 6 3
8 8 3
9 10 3
10 12 3
11 14 3
12 16 3
13 20 3
14 22 3
15 24 3
16 26 3
17 28 3
18 30 3
19 32 3
20 34 3
21 38 3
22 40 3
23 42 3
24 44 3
25 46 3
26 48 3
27 50 3
28 52 3
29 56 3
30 58 3
31 60 3
32 62 3
33 64 3
34 66 3
35 68 3
36 70 3
37 74 3
38 76 3
39 78 3
40 80 3
