%%MatrixMarket matrix coordinate integer general
%
84 169 312
1 15 0
2 17 0
3 19 0
4 21 0
5 23 0
6 25 0
8 27 0
9 29 0
10 31 0
11 33 0
12 35 0
13 37 0
14 39 0
15 41 0
16 43 0
17 45 0
18 47 0
19 49 0
20 51 0
22 53 0
23 55 0
24 57 0
25 59 0
26 61 0
27 63 0
28 65 0
29 67 0
30 69 0
31 71 0
32 73 0
33 75 0
34 77 0
36 79 0
37 81 0
38 83 0
39 85 0
40 87 0
41 89 0
42 91 0
43 93 0
44 95 0
45 97 0
46 99 0
47 101 0
48 103 0
50 105 0
51 107 0
52 109 0
53 111 0
54 113 0
55 115 0
56 117 0
57 119 0
58 121 0
59 123 0
60 125 0
61 127 0
62 129 0
64 131 0
65 133 0
66 135 0
67 137 0
68 139 0
69 141 0
70 143 0
71 145 0
72 147 0
73 149 0
74 151 0
75 153 0
76 155 0
78 157 0
79 159 0
80 161 0
81 163 0
82 165 0
83 167 0
84 169 0
1 2 1
2 4 1
3 6 1
4 8 1
5 10 1
6 12 1
8 14 1
9 16 1
10 18 1
11 20 1
12 22 1
13 24 1
14 26 1
15 28 1
16 30 1
17 32 1
18 34 1
19 36 1
20 38 1
22 40 1
23 42 1
24 44 1
25 46 1
26 48 1
27 50 1
28 52 1
29 54 1
30 56 1
31 58 1
32 60 1
33 62 1
34 64 1
36 66 1
37 68 1
38 70 1
39 72 1
40 74 1
41 76 1
42 78 1
43 80 1
44 82 1
45 84 1
46 86 1
47 88 1
48 90 1
50 92 1
51 94 1
52 96 1
53 98 1
54 100 1
55 102 1
56 104 1
57 106 1
58 108 1
59 110 1
60 112 1
61 114 1
62 116 1
64 118 1
65 120 1
66 122 1
67 124 1
68 126 1
69 128 1
70 130 1
71 132 1
72 134 1
73 136 1
74 138 1
75 140 1
76 142 1
78 144 1
79 146 1
80 148 1
81 150 1
82 152 1
83 154 1
84 156 1
1 14 2
2 16 2
3 18 2
4 20 2
5 22 2
6 24 2
7 26 2
9 28 2
10 30 2
11 32 2
12 34 2
13 36 2
14 38 2
15 40 2
16 42 2
17 44 2
18 46 2
19 48 2
20 50 2
21 52 2
23 54 2
24 56 2
25 58 2
26 60 2
27 62 2
28 64 2
29 66 2
30 68 2
31 70 2
32 72 2
33 74 2
34 76 2
35 78 2
37 80 2
38 82 2
39 84 2
40 86 2
41 88 2
42 90 2
43 92 2
44 94 2
45 96 2
46 98 2
47 100 2
48 102 2
49 104 2
51 106 2
52 108 2
53 110 2
54 112 2
55 114 2
56 116 2
57 118 2
58 120 2
59 122 2
60 124 2
61 126 2
62 128 2
63 130 2
65 132 2
66 134 2
67 136 2
68 138 2
69 140 2
70 142 2
71 144 2
72 146 2
73 148 2
74 150 2
75 152 2
76 154 2
77 156 2
79 158 2
80 160 2
81 162 2
82 164 2
83 166 2
84 168 2
1 1 3
2 3 3
3 5 3
4 7 3
5 9 3
6 11 3
7 13 3
9 15 3
10 17 3
11 19 3
12 21 3
13 23 3
14 25 3
15 27 3
16 29 3
17 31 3
18 33 3
19 35 3
20 37 3
21 39 3
23 41 3
24 43 3
25 45 3
26 47 3
27 49 3
28 51 3
29 53 3
30 55 3
31 57 3
32 59 3
33 61 3
34 63 3
35 65 3
37 67 3
38 69 3
39 71 3
40 73 3
41 75 3
42 77 3
43 79 3
44 81 3
45 83 3
46 85 3
47 87 3
48 89 3
49 91 3
51 93 3
52 95 3
53 97 3
54 99 3
55 101 3
56 103 3
57 105 3
58 107 3
59 109 3
60 111 3
61 113 3
62 115 3
63 117 3
65 119 3
66 121 3
67 123 3
68 125 3
69 127 3
70 129 3
71 131 3
72 133 3
73 135 3
74 137 3
75 139 3
76 141 3
77 143 3
79 145 3
80 147 3
81 149 3
82 151 3
83 153 3
84 155 3
