%%MatrixMarket matrix coordinate integer general
%
84 169 312
1 2 0
2 4 0
3 6 0
4 8 0
5 10 0
6 12 0
7 16 0
8 18 0
9 20 0
10 22 0
11 24 0
12 26 0
13 28 0
14 30 0
15 32 0
16 34 0
17 36 0
18 38 0
19 42 0
20 44 0
21 46 0
22 48 0
23 50 0
24 52 0
25 54 0
26 56 0
27 58 0
28 60 0
29 62 0
30 64 0
31 68 0
32 70 0
33 72 0
34 74 0
35 76 0
36 78 0
37 80 0
38 82 0
39 84 0
40 86 0
41 88 0
42 90 0
43 94 0
44 96 0
45 98 0
46 100 0
47 102 0
48 104 0
49 106 0
50 108 0
51 110 0
52 112 0
53 114 0
54 116 0
55 120 0
56 122 0
57 124 0
58 126 0
59 128 0
60 130 0
61 132 0
62 134 0
63 136 0
64 138 0
65 140 0
66 142 0
67 146 0
68 148 0
69 150 0
70 152 0
71 154 0
72 156 0
73 158 0
74 160 0
75 162 0
76 164 0
77 166 0
78 168 0
1 1 1
2 3 1
3 5 1
4 7 1
5 9 1
6 11 1
7 15 1
8 17 1
9 19 1
10 21 1
11 23 1
12 25 1
13 27 1
14 29 1
15 31 1
16 33 1
17 35 1
18 37 1
19 41 1
20 43 1
21 45 1
22 47 1
23 49 1
24 51 1
25 53 1
26 55 1
27 57 1
28 59 1
29 61 1
30 63 1
31 67 1
32 69 1
33 71 1
34 73 1
35 75 1
36 77 1
37 79 1
38 81 1
39 83 1
40 85 1
41 87 1
42 89 1
43 93 1
44 95 1
45 97 1
46 99 1
47 101 1
48 103 1
49 105 1
50 107 1
51 109 1
52 111 1
53 113 1
54 115 1
55 119 1
56 121 1
57 123 1
58 125 1
59 127 1
60 129 1
61 131 1
62 133 1
63 135 1
64 137 1
65 139 1
66 141 1
67 145 1
68 147 1
69 149 1
70 151 1
71 153 1
72 155 1
73 157 1
74 159 1
75 161 1
76 163 1
77 165 1
78 167 1
7 3 2
8 5 2
9 7 2
10 9 2
11 11 2
12 13 2
13 15 2
14 17 2
15 19 2
16 21 2
17 23 2
18 25 2
19 29 2
20 31 2
21 33 2
22 35 2
23 37 2
24 39 2
25 41 2
26 43 2
27 45 2
28 47 2
29 49 2
30 51 2
31 55 2
32 57 2
33 59 2
34 61 2
35 63 2
36 65 2
37 67 2
38 69 2
39 71 2
40 73 2
41 75 2
42 77 2
43 81 2
44 83 2
45 85 2
46 87 2
47 89 2
48 91 2
49 93 2
50 95 2
51 97 2
52 99 2
53 101 2
54 103 2
55 107 2
56 109 2
57 111 2
58 113 2
59 115 2
60 117 2
61 119 2
62 121 2
63 123 2
64 125 2
65 127 2
66 129 2
67 133 2
68 135 2
69 137 2
70 139 2
71 141 2
72 143 2
73 145 2
74 147 2
75 149 2
76 151 2
77 153 2
78 155 2
79 159 2
80 161 2
81 163 2
82 165 2
83 167 2
84 169 2
7 2 3
8 4 3
9 6 3
10 8 3
11 10 3
12 12 3
13 14 3
14 16 3
15 18 3
16 20 3
17 22 3
18 24 3
19 28 3
20 30 3
21 32 3
22 34 3
23 36 3
24 38 3
25 40 3
26 42 3
27 44 3
28 46 3
29 48 3
30 50 3
31 54 3
32 56 3
33 58 3
34 60 3
35 62 3
36 64 3
37 66 3
38 68 3
39 70 3
40 72 3
41 74 3
42 76 3
43 80 3
44 82 3
45 84 3
46 86 3
47 88 3
48 90 3
49 92 3
50 94 3
51 96 3
52 98 3
53 100 3
54 102 3
55 106 3
56 108 3
57 110 3
58 112 3
59 114 3
60 116 3
61 118 3
62 120 3
63 122 3
64 124 3
65 126 3
66 128 3
67 132 3
68 134 3
69 136 3
70 138 3
71 140 3
72 142 3
73 144 3
74 146 3
75 148 3
76 150 3
77 152 3
78 154 3
79 158 3
80 160 3
81 162 3
82 164 3
83 166 3
84 168 3
