%%MatrixMarket matrix coordinate integer general
%
72 144 432
1 19 0
2 20 0
3 21 0
4 22 0
5 23 0
6 24 0
7 25 0
8 26 0
9 27 0
10 28 0
11 29 0
12 30 0
13 31 0
14 32 0
15 33 0
16 34 0
17 35 0
18 36 0
19 37 0
20 38 0
21 39 0
22 40 0
23 41 0
24 42 0
25 43 0
26 44 0
27 45 0
28 46 0
29 47 0
30 48 0
31 49 0
32 50 0
33 51 0
34 52 0
35 53 0
36 54 0
37 55 0
38 56 0
39 57 0
40 58 0
41 59 0
42 60 0
43 61 0
44 62 0
45 63 0
46 64 0
47 65 0
48 66 0
49 67 0
50 68 0
51 69 0
52 70 0
53 71 0
54 72 0
55 1 0
56 2 0
57 3 0
58 4 0
59 5 0
60 6 0
61 7 0
62 8 0
63 9 0
64 10 0
65 11 0
66 12 0
67 13 0
68 14 0
69 15 0
70 16 0
71 17 0
72 18 0
1 79 1
2 80 1
3 81 1
4 82 1
5 83 1
6 84 1
7 85 1
8 86 1
9 87 1
10 88 1
11 89 1
12 90 1
13 91 1
14 92 1
15 93 1
16 94 1
17 95 1
18 96 1
19 97 1
20 98 1
21 99 1
22 100 1
23 101 1
24 102 1
25 103 1
26 104 1
27 105 1
28 106 1
29 107 1
30 108 1
31 109 1
32 110 1
33 111 1
34 112 1
35 113 1
36 114 1
37 115 1
38 116 1
39 117 1
40 118 1
41 119 1
42 120 1
43 121 1
44 122 1
45 123 1
46 124 1
47 125 1
48 126 1
49 127 1
50 128 1
51 129 1
52 130 1
53 131 1
54 132 1
55 133 1
56 134 1
57 135 1
58 136 1
59 137 1
60 138 1
61 139 1
62 140 1
63 141 1
64 142 1
65 143 1
66 144 1
67 73 1
68 74 1
69 75 1
70 76 1
71 77 1
72 78 1
1 85 2
2 86 2
3 87 2
4 88 2
5 89 2
6 90 2
7 91 2
8 92 2
9 93 2
10 94 2
11 95 2
12 96 2
13 97 2
14 98 2
15 99 2
16 100 2
17 101 2
18 102 2
19 103 2
20 104 2
21 105 2
22 106 2
23 107 2
24 108 2
25 109 2
26 110 2
27 111 2
28 112 2
29 113 2
30 114 2
31 115 2
32 116 2
33 117 2
34 118 2
35 119 2
36 120 2
37 121 2
38 122 2
39 123 2
40 124 2
41 125 2
42 126 2
43 127 2
44 128 2
45 129 2
46 130 2
47 131 2
48 132 2
49 133 2
50 134 2
51 135 2
52 136 2
53 137 2
54 138 2
55 139 2
56 140 2
57 141 2
58 142 2
59 143 2
60 144 2
61 73 2
62 74 2
63 75 2
64 76 2
65 77 2
66 78 2
67 79 2
68 80 2
69 81 2
70 82 2
71 83 2
72 84 2
1 76 3
2 77 3
3 78 3
4 73 3
5 74 3
6 75 3
7 82 3
8 83 3
9 84 3
10 79 3
11 80 3
12 81 3
13 88 3
14 89 3
15 90 3
16 85 3
17 86 3
18 87 3
19 94 3
20 95 3
21 96 3
22 91 3
23 92 3
24 93 3
25 100 3
26 101 3
27 102 3
28 97 3
29 98 3
30 99 3
31 106 3
32 107 3
33 108 3
34 103 3
35 104 3
36 105 3
37 112 3
38 113 3
39 114 3
40 109 3
41 110 3
42 111 3
43 118 3
44 119 3
45 120 3
46 115 3
47 116 3
48 117 3
49 124 3
50 125 3
51 126 3
52 121 3
53 122 3
54 123 3
55 130 3
56 131 3
57 132 3
58 127 3
59 128 3
60 129 3
61 136 3
62 137 3
63 138 3
64 133 3
65 134 3
66 135 3
67 142 3
68 143 3
69 144 3
70 139 3
71 140 3
72 141 3
1 2 4
2 3 4
3 4 4
4 5 4
5 6 4
6 1 4
7 8 4
8 9 4
9 10 4
10 11 4
11 12 4
12 7 4
13 14 4
14 15 4
15 16 4
16 17 4
17 18 4
18 13 4
19 20 4
20 21 4
21 22 4
22 23 4
23 24 4
24 19 4
25 26 4
26 27 4
27 28 4
28 29 4
29 30 4
30 25 4
31 32 4
32 33 4
33 34 4
34 35 4
35 36 4
36 31 4
37 38 4
38 39 4
39 40 4
40 41 4
41 42 4
42 37 4
43 44 4
44 45 4
45 46 4
46 47 4
47 48 4
48 43 4
49 50 4
50 51 4
51 52 4
52 53 4
53 54 4
54 49 4
55 56 4
56 57 4
57 58 4
58 59 4
59 60 4
60 55 4
61 62 4
62 63 4
63 64 4
64 65 4
65 66 4
66 61 4
67 68 4
68 69 4
69 70 4
70 71 4
71 72 4
72 67 4
1 3 5
2 4 5
3 5 5
4 6 5
5 1 5
6 2 5
7 9 5
8 10 5
9 11 5
10 12 5
11 7 5
12 8 5
13 15 5
14 16 5
15 17 5
16 18 5
17 13 5
18 14 5
19 21 5
20 22 5
21 23 5
22 24 5
23 19 5
24 20 5
25 27 5
26 28 5
27 29 5
28 30 5
29 25 5
30 26 5
31 33 5
32 34 5
33 35 5
34 36 5
35 31 5
36 32 5
37 39 5
38 40 5
39 41 5
40 42 5
41 37 5
42 38 5
43 45 5
44 46 5
45 47 5
46 48 5
47 43 5
48 44 5
49 51 5
50 52 5
51 53 5
52 54 5
53 49 5
54 50 5
55 57 5
56 58 5
57 59 5
58 60 5
59 55 5
60 56 5
61 63 5
62 64 5
63 65 5
64 66 5
65 61 5
66 62 5
67 69 5
68 70 5
69 71 5
70 72 5
71 67 5
72 68 5
