%%MatrixMarket matrix coordinate integer general
%
72 144 432
1 78 0
2 73 0
3 74 0
4 75 0
5 76 0
6 77 0
7 84 0
8 79 0
9 80 0
10 81 0
11 82 0
12 83 0
13 90 0
14 85 0
15 86 0
16 87 0
17 88 0
18 89 0
19 96 0
20 91 0
21 92 0
22 93 0
23 94 0
24 95 0
25 102 0
26 97 0
27 98 0
28 99 0
29 100 0
30 101 0
31 108 0
32 103 0
33 104 0
34 105 0
35 106 0
36 107 0
37 114 0
38 109 0
39 110 0
40 111 0
41 112 0
42 113 0
43 120 0
44 115 0
45 116 0
46 117 0
47 118 0
48 119 0
49 126 0
50 121 0
51 122 0
52 123 0
53 124 0
54 125 0
55 132 0
56 127 0
57 128 0
58 129 0
59 130 0
60 131 0
61 138 0
62 133 0
63 134 0
64 135 0
65 136 0
66 137 0
67 144 0
68 139 0
69 140 0
70 141 0
71 142 0
72 143 0
1 77 1
2 78 1
3 73 1
4 74 1
5 75 1
6 76 1
7 83 1
8 84 1
9 79 1
10 80 1
11 81 1
12 82 1
13 89 1
14 90 1
15 85 1
16 86 1
17 87 1
18 88 1
19 95 1
20 96 1
21 91 1
22 92 1
23 93 1
24 94 1
25 101 1
26 102 1
27 97 1
28 98 1
29 99 1
30 100 1
31 107 1
32 108 1
33 103 1
34 104 1
35 105 1
36 106 1
37 113 1
38 114 1
39 109 1
40 110 1
41 111 1
42 112 1
43 119 1
44 120 1
45 115 1
46 116 1
47 117 1
48 118 1
49 125 1
50 126 1
51 121 1
52 122 1
53 123 1
54 124 1
55 131 1
56 132 1
57 127 1
58 128 1
59 129 1
60 130 1
61 137 1
62 138 1
63 133 1
64 134 1
65 135 1
66 136 1
67 143 1
68 144 1
69 139 1
70 140 1
71 141 1
72 142 1
1 67 2
2 68 2
3 69 2
4 70 2
5 71 2
6 72 2
7 1 2
8 2 2
9 3 2
10 4 2
11 5 2
12 6 2
13 7 2
14 8 2
15 9 2
16 10 2
17 11 2
18 12 2
19 13 2
20 14 2
21 15 2
22 16 2
23 17 2
24 18 2
25 19 2
26 20 2
27 21 2
28 22 2
29 23 2
30 24 2
31 25 2
32 26 2
33 27 2
34 28 2
35 29 2
36 30 2
37 31 2
38 32 2
39 33 2
40 34 2
41 35 2
42 36 2
43 37 2
44 38 2
45 39 2
46 40 2
47 41 2
48 42 2
49 43 2
50 44 2
51 45 2
52 46 2
53 47 2
54 48 2
55 49 2
56 50 2
57 51 2
58 52 2
59 53 2
60 54 2
61 55 2
62 56 2
63 57 2
64 58 2
65 59 2
66 60 2
67 61 2
68 62 2
69 63 2
70 64 2
71 65 2
72 66 2
1 61 3
2 62 3
3 63 3
4 64 3
5 65 3
6 66 3
7 67 3
8 68 3
9 69 3
10 70 3
11 71 3
12 72 3
13 1 3
14 2 3
15 3 3
16 4 3
17 5 3
18 6 3
19 7 3
20 8 3
21 9 3
22 10 3
23 11 3
24 12 3
25 13 3
26 14 3
27 15 3
28 16 3
29 17 3
30 18 3
31 19 3
32 20 3
33 21 3
34 22 3
35 23 3
36 24 3
37 25 3
38 26 3
39 27 3
40 28 3
41 29 3
42 30 3
43 31 3
44 32 3
45 33 3
46 34 3
47 35 3
48 36 3
49 37 3
50 38 3
51 39 3
52 40 3
53 41 3
54 42 3
55 43 3
56 44 3
57 45 3
58 46 3
59 47 3
60 48 3
61 49 3
62 50 3
63 51 3
64 52 3
65 53 3
66 54 3
67 55 3
68 56 3
69 57 3
70 58 3
71 59 3
72 60 3
1 4 4
2 5 4
3 6 4
4 1 4
5 2 4
6 3 4
7 10 4
8 11 4
9 12 4
10 7 4
11 8 4
12 9 4
13 16 4
14 17 4
15 18 4
16 13 4
17 14 4
18 15 4
19 22 4
20 23 4
21 24 4
22 19 4
23 20 4
24 21 4
25 28 4
26 29 4
27 30 4
28 25 4
29 26 4
30 27 4
31 34 4
32 35 4
33 36 4
34 31 4
35 32 4
36 33 4
37 40 4
38 41 4
39 42 4
40 37 4
41 38 4
42 39 4
43 46 4
44 47 4
45 48 4
46 43 4
47 44 4
48 45 4
49 52 4
50 53 4
51 54 4
52 49 4
53 50 4
54 51 4
55 58 4
56 59 4
57 60 4
58 55 4
59 56 4
60 57 4
61 64 4
62 65 4
63 66 4
64 61 4
65 62 4
66 63 4
67 70 4
68 71 4
69 72 4
70 67 4
71 68 4
72 69 4
1 127 5
2 128 5
3 129 5
4 130 5
5 131 5
6 132 5
7 133 5
8 134 5
9 135 5
10 136 5
11 137 5
12 138 5
13 139 5
14 140 5
15 141 5
16 142 5
17 143 5
18 144 5
19 73 5
20 74 5
21 75 5
22 76 5
23 77 5
24 78 5
25 79 5
26 80 5
27 81 5
28 82 5
29 83 5
30 84 5
31 85 5
32 86 5
33 87 5
34 88 5
35 89 5
36 90 5
37 91 5
38 92 5
39 93 5
40 94 5
41 95 5
42 96 5
43 97 5
44 98 5
45 99 5
46 100 5
47 101 5
48 102 5
49 103 5
50 104 5
51 105 5
52 106 5
53 107 5
54 108 5
55 109 5
56 110 5
57 111 5
58 112 5
59 113 5
60 114 5
61 115 5
62 116 5
63 117 5
64 118 5
65 119 5
66 120 5
67 121 5
68 122 5
69 123 5
70 124 5
71 125 5
72 126 5
