%%MatrixMarket matrix coordinate integer general
%
12 144 242
1 57 1
1 58 1
1 59 1
1 63 1
1 64 1
1 65 1
1 91 1
1 92 1
1 93 1
1 94 1
1 95 1
1 96 1
1 110 1
1 112 1
1 114 1
1 115 1
1 116 1
1 117 1
1 118 1
1 119 1
1 120 1
1 129 1
1 130 1
1 131 1
2 57 1
2 60 1
2 63 1
2 66 1
2 109 1
2 110 1
2 111 1
2 112 1
2 113 1
2 114 1
2 129 1
2 132 1
3 64 1
3 65 1
3 66 1
3 70 1
3 71 1
3 72 1
3 81 1
3 83 1
3 98 1
3 99 1
3 115 1
3 121 1
3 122 1
3 123 1
3 124 1
3 125 1
3 126 1
3 133 1
4 59 1
4 63 1
4 70 1
4 81 1
4 82 1
4 83 1
4 84 1
4 91 1
4 92 1
4 93 1
4 94 1
4 95 1
4 96 1
4 98 1
4 100 1
4 103 1
4 104 1
4 105 1
4 106 1
4 107 1
4 108 1
4 110 1
4 112 1
4 114 1
4 117 1
4 118 1
4 119 1
4 120 1
4 121 1
4 123 1
4 125 1
4 129 1
4 130 1
4 134 1
5 57 1
5 58 1
5 60 1
5 63 1
5 64 1
5 69 1
5 91 1
5 92 1
5 93 1
5 94 1
5 95 1
5 96 1
5 97 1
5 98 1
5 99 1
5 100 1
5 101 1
5 102 1
5 109 1
5 111 1
5 113 1
5 115 1
5 117 1
5 119 1
5 130 1
5 135 1
6 59 1
6 63 1
6 70 1
6 91 1
6 92 1
6 93 1
6 94 1
6 95 1
6 96 1
6 103 1
6 104 1
6 105 1
6 106 1
6 107 1
6 108 1
6 110 1
6 112 1
6 114 1
6 121 1
6 123 1
6 125 1
6 129 1
6 130 1
6 136 1
7 57 1
7 58 1
7 59 1
7 60 1
7 63 1
7 65 1
7 71 1
7 103 1
7 104 1
7 105 1
7 106 1
7 107 1
7 108 1
7 109 1
7 110 1
7 111 1
7 112 1
7 113 1
7 114 1
7 115 1
7 116 1
7 117 1
7 118 1
7 119 1
7 120 1
7 122 1
7 124 1
7 126 1
7 129 1
7 137 1
8 57 1
8 58 1
8 60 1
8 64 1
8 66 1
8 72 1
8 91 1
8 92 1
8 93 1
8 94 1
8 95 1
8 96 1
8 97 1
8 98 1
8 99 1
8 100 1
8 101 1
8 102 1
8 109 1
8 111 1
8 113 1
8 116 1
8 118 1
8 120 1
8 130 1
8 138 1
9 86 1
9 87 1
9 88 1
9 89 1
9 103 1
9 105 1
9 122 1
9 123 1
9 124 1
9 125 1
9 139 1
9 141 1
10 87 1
10 88 1
10 89 1
10 90 1
10 104 1
10 106 1
10 123 1
10 124 1
10 125 1
10 126 1
10 140 1
10 142 1
11 85 1
11 86 1
11 87 1
11 90 1
11 103 1
11 107 1
11 121 1
11 122 1
11 123 1
11 126 1
11 139 1
11 143 1
12 85 1
12 86 1
12 87 1
12 88 1
12 104 1
12 108 1
12 121 1
12 122 1
12 123 1
12 124 1
12 140 1
12 144 1
