%%MatrixMarket matrix coordinate integer general
%
12 144 342
1 2 1
1 9 1
1 10 1
1 11 1
1 12 1
1 15 1
1 16 1
1 17 1
1 18 1
1 25 1
1 29 1
1 31 1
1 35 1
1 45 1
1 46 1
1 47 1
1 48 1
1 51 1
1 52 1
1 53 1
1 54 1
1 61 1
1 67 1
1 75 1
1 76 1
1 131 1
2 3 1
2 9 1
2 10 1
2 12 1
2 15 1
2 16 1
2 18 1
2 20 1
2 22 1
2 24 1
2 25 1
2 27 1
2 28 1
2 29 1
2 31 1
2 33 1
2 34 1
2 35 1
2 37 1
2 38 1
2 39 1
2 40 1
2 41 1
2 42 1
2 43 1
2 46 1
2 47 1
2 48 1
2 49 1
2 52 1
2 53 1
2 54 1
2 62 1
2 68 1
2 73 1
2 75 1
2 76 1
2 132 1
3 1 1
3 8 1
3 9 1
3 13 1
3 14 1
3 15 1
3 16 1
3 17 1
3 18 1
3 26 1
3 28 1
3 30 1
3 43 1
3 44 1
3 45 1
3 46 1
3 47 1
3 48 1
3 67 1
3 74 1
3 75 1
3 76 1
3 79 1
3 133 1
4 2 1
4 7 1
4 10 1
4 11 1
4 14 1
4 16 1
4 18 1
4 20 1
4 22 1
4 24 1
4 26 1
4 28 1
4 30 1
4 31 1
4 32 1
4 33 1
4 34 1
4 35 1
4 36 1
4 37 1
4 38 1
4 39 1
4 40 1
4 41 1
4 42 1
4 43 1
4 44 1
4 45 1
4 46 1
4 47 1
4 48 1
4 68 1
4 73 1
4 76 1
4 80 1
4 134 1
5 3 1
5 12 1
5 13 1
5 14 1
5 17 1
5 18 1
5 31 1
5 33 1
5 49 1
5 50 1
5 53 1
5 54 1
5 67 1
5 79 1
5 80 1
5 135 1
6 4 1
6 8 1
6 9 1
6 13 1
6 14 1
6 15 1
6 18 1
6 19 1
6 20 1
6 21 1
6 22 1
6 23 1
6 24 1
6 26 1
6 28 1
6 30 1
6 32 1
6 34 1
6 43 1
6 44 1
6 45 1
6 46 1
6 47 1
6 48 1
6 49 1
6 50 1
6 51 1
6 54 1
6 68 1
6 73 1
6 74 1
6 75 1
6 79 1
6 136 1
7 5 1
7 9 1
7 10 1
7 15 1
7 16 1
7 17 1
7 18 1
7 19 1
7 20 1
7 21 1
7 22 1
7 23 1
7 24 1
7 25 1
7 27 1
7 29 1
7 31 1
7 35 1
7 43 1
7 44 1
7 45 1
7 46 1
7 47 1
7 48 1
7 51 1
7 52 1
7 53 1
7 54 1
7 67 1
7 74 1
7 75 1
7 76 1
7 80 1
7 137 1
8 6 1
8 8 1
8 10 1
8 15 1
8 16 1
8 18 1
8 20 1
8 22 1
8 24 1
8 25 1
8 26 1
8 27 1
8 28 1
8 29 1
8 30 1
8 31 1
8 33 1
8 34 1
8 35 1
8 37 1
8 38 1
8 39 1
8 40 1
8 41 1
8 42 1
8 49 1
8 52 1
8 53 1
8 54 1
8 68 1
8 74 1
8 75 1
8 76 1
8 79 1
8 80 1
8 138 1
9 3 1
9 9 1
9 10 1
9 14 1
9 16 1
9 18 1
9 25 1
9 27 1
9 29 1
9 31 1
9 32 1
9 33 1
9 34 1
9 35 1
9 36 1
9 43 1
9 44 1
9 45 1
9 46 1
9 47 1
9 48 1
9 76 1
9 80 1
9 141 1
10 4 1
10 8 1
10 10 1
10 19 1
10 21 1
10 23 1
10 25 1
10 26 1
10 27 1
10 28 1
10 29 1
10 30 1
10 37 1
10 38 1
10 39 1
10 40 1
10 41 1
10 42 1
10 74 1
10 79 1
10 80 1
10 142 1
11 5 1
11 7 1
11 8 1
11 11 1
11 19 1
11 21 1
11 23 1
11 25 1
11 27 1
11 29 1
11 37 1
11 38 1
11 39 1
11 40 1
11 41 1
11 42 1
11 43 1
11 44 1
11 45 1
11 46 1
11 47 1
11 48 1
11 73 1
11 74 1
11 79 1
11 143 1
12 6 1
12 8 1
12 9 1
12 12 1
12 20 1
12 22 1
12 24 1
12 26 1
12 28 1
12 30 1
12 37 1
12 38 1
12 39 1
12 40 1
12 41 1
12 42 1
12 43 1
12 44 1
12 45 1
12 46 1
12 47 1
12 48 1
12 74 1
12 75 1
12 80 1
12 144 1
