%%MatrixMarket matrix coordinate integer general
%
31 64 112
1 10 0
2 12 0
3 14 0
4 16 0
5 17 0
6 19 0
7 21 0
8 23 0
10 26 0
11 28 0
12 30 0
13 32 0
14 33 0
15 35 0
16 37 0
17 39 0
19 42 0
20 44 0
21 46 0
22 48 0
23 49 0
24 51 0
25 53 0
26 55 0
28 58 0
29 60 0
30 62 0
31 64 0
1 2 1
2 4 1
3 6 1
4 8 1
5 9 1
6 11 1
7 13 1
8 15 1
10 18 1
11 20 1
12 22 1
13 24 1
14 25 1
15 27 1
16 29 1
17 31 1
19 34 1
20 36 1
21 38 1
22 40 1
23 41 1
24 43 1
25 45 1
26 47 1
28 50 1
29 52 1
30 54 1
31 56 1
1 9 2
2 11 2
3 13 2
4 15 2
6 18 2
7 20 2
8 22 2
9 24 2
10 25 2
11 27 2
12 29 2
13 31 2
15 34 2
16 36 2
17 38 2
18 40 2
19 41 2
20 43 2
21 45 2
22 47 2
24 50 2
25 52 2
26 54 2
27 56 2
28 57 2
29 59 2
30 61 2
31 63 2
1 1 3
2 3 3
3 5 3
4 7 3
6 10 3
7 12 3
8 14 3
9 16 3
10 17 3
11 19 3
12 21 3
13 23 3
15 26 3
16 28 3
17 30 3
18 32 3
19 33 3
20 35 3
21 37 3
22 39 3
24 42 3
25 44 3
26 46 3
27 48 3
28 49 3
29 51 3
30 53 3
31 55 3
