%%MatrixMarket matrix coordinate integer general
%
32 64 112
1 2 0
2 4 0
3 6 0
4 8 0
5 11 0
6 13 0
7 15 0
8 18 0
9 20 0
10 22 0
11 24 0
12 27 0
13 29 0
14 31 0
15 34 0
16 36 0
17 38 0
18 40 0
19 43 0
20 45 0
21 47 0
22 50 0
23 52 0
24 54 0
25 56 0
26 59 0
27 61 0
28 63 0
1 1 1
2 3 1
3 5 1
4 7 1
5 10 1
6 12 1
7 14 1
8 17 1
9 19 1
10 21 1
11 23 1
12 26 1
13 28 1
14 30 1
15 33 1
16 35 1
17 37 1
18 39 1
19 42 1
20 44 1
21 46 1
22 49 1
23 51 1
24 53 1
25 55 1
26 58 1
27 60 1
28 62 1
5 3 2
6 5 2
7 7 2
8 10 2
9 12 2
10 14 2
11 16 2
12 19 2
13 21 2
14 23 2
15 26 2
16 28 2
17 30 2
18 32 2
19 35 2
20 37 2
21 39 2
22 42 2
23 44 2
24 46 2
25 48 2
26 51 2
27 53 2
28 55 2
29 58 2
30 60 2
31 62 2
32 64 2
5 2 3
6 4 3
7 6 3
8 9 3
9 11 3
10 13 3
11 15 3
12 18 3
13 20 3
14 22 3
15 25 3
16 27 3
17 29 3
18 31 3
19 34 3
20 36 3
21 38 3
22 41 3
23 43 3
24 45 3
25 47 3
26 50 3
27 52 3
28 54 3
29 57 3
30 59 3
31 61 3
32 63 3
